NumberOfSpecies4
%block ChemicalSpeciesLabel
       1       6    C                                                           
       2       6    D                                                           
       3       5    E                                                           
       4       7    F                                                           
%endblock ChemicalSpeciesLabel
NumberOfAtoms  1084
LatticeConstant  1.00 Ang
%block LatticeVectors
    34.442660000    21.305870381     0.000000000
    -1.230095000    40.481153725     0.000000000
     0.000000000     0.000000000    35.000000000
%endblock LatticeVectors

AtomicCoordinatesFormat     Fractional
%block AtomicCoordinatesAndAtomicSpecies
     0.000000000     0.000000000     0.547857143       1
     0.035670357     0.998769988     0.547857143       2
     0.036900369     0.033210332     0.547857143       1
     0.072570726     0.031980320     0.547857143       2
     0.073800738     0.066420664     0.547857143       1
     0.109471095     0.065190652     0.547857143       2
     0.110701107     0.099630996     0.547857143       1
     0.146371464     0.098400984     0.547857143       2
     0.147601476     0.132841328     0.547857143       1
     0.183271833     0.131611316     0.547857143       2
     0.184501845     0.166051661     0.547857143       1
     0.220172202     0.164821648     0.547857143       2
     0.221402214     0.199261993     0.547857143       1
     0.257072571     0.198031980     0.547857143       2
     0.258302583     0.232472325     0.547857143       1
     0.293972940     0.231242312     0.547857143       2
     0.295202952     0.265682657     0.547857143       1
     0.330873309     0.264452645     0.547857143       2
     0.332103321     0.298892989     0.547857143       1
     0.367773678     0.297662977     0.547857143       2
     0.369003690     0.332103321     0.547857143       1
     0.404674047     0.330873309     0.547857143       2
     0.405904059     0.365313653     0.547857143       1
     0.441574416     0.364083641     0.547857143       2
     0.442804428     0.398523985     0.547857143       1
     0.478474785     0.397293973     0.547857143       2
     0.479704797     0.431734317     0.547857143       1
     0.515375154     0.430504305     0.547857143       2
     0.516605166     0.464944649     0.547857143       1
     0.552275523     0.463714637     0.547857143       2
     0.553505535     0.498154982     0.547857143       1
     0.589175892     0.496924969     0.547857143       2
     0.590405904     0.531365314     0.547857143       1
     0.626076261     0.530135301     0.547857143       2
     0.627306273     0.564575646     0.547857143       1
     0.662976630     0.563345633     0.547857143       2
     0.664206642     0.597785978     0.547857143       1
     0.699876999     0.596555966     0.547857143       2
     0.701107011     0.630996310     0.547857143       1
     0.736777368     0.629766298     0.547857143       2
     0.738007380     0.664206642     0.547857143       1
     0.773677737     0.662976630     0.547857143       2
     0.774907749     0.697416974     0.547857143       1
     0.810578106     0.696186962     0.547857143       2
     0.811808118     0.730627306     0.547857143       1
     0.847478475     0.729397294     0.547857143       2
     0.848708487     0.763837638     0.547857143       1
     0.884378844     0.762607626     0.547857143       2
     0.885608856     0.797047970     0.547857143       1
     0.921279213     0.795817958     0.547857143       2
     0.922509225     0.830258303     0.547857143       1
     0.958179582     0.829028290     0.547857143       2
     0.959409594     0.863468635     0.547857143       1
     0.995079951     0.862238622     0.547857143       2
     0.996309963     0.896678967     0.547857143       1
     0.031980320     0.895448954     0.547857143       2
     0.033210332     0.929889299     0.547857143       1
     0.068880689     0.928659287     0.547857143       2
     0.070110701     0.963099631     0.547857143       1
     0.105781058     0.961869619     0.547857143       2
     0.107011070     0.996309963     0.547857143       1
     0.142681427     0.995079951     0.547857143       2
     0.143911439     0.029520295     0.547857143       1
     0.179581796     0.028290283     0.547857143       2
     0.180811808     0.062730627     0.547857143       1
     0.216482165     0.061500615     0.547857143       2
     0.217712177     0.095940959     0.547857143       1
     0.253382534     0.094710947     0.547857143       2
     0.254612546     0.129151292     0.547857143       1
     0.290282903     0.127921279     0.547857143       2
     0.291512915     0.162361624     0.547857143       1
     0.327183272     0.161131611     0.547857143       2
     0.328413284     0.195571956     0.547857143       1
     0.364083641     0.194341943     0.547857143       2
     0.365313653     0.228782288     0.547857143       1
     0.400984010     0.227552276     0.547857143       2
     0.402214022     0.261992620     0.547857143       1
     0.437884379     0.260762608     0.547857143       2
     0.439114391     0.295202952     0.547857143       1
     0.474784748     0.293972940     0.547857143       2
     0.476014760     0.328413284     0.547857143       1
     0.511685117     0.327183272     0.547857143       2
     0.512915129     0.361623616     0.547857143       1
     0.548585486     0.360393604     0.547857143       2
     0.549815498     0.394833948     0.547857143       1
     0.585485855     0.393603936     0.547857143       2
     0.586715867     0.428044280     0.547857143       1
     0.622386224     0.426814268     0.547857143       2
     0.623616236     0.461254613     0.547857143       1
     0.659286593     0.460024600     0.547857143       2
     0.660516605     0.494464945     0.547857143       1
     0.696186962     0.493234932     0.547857143       2
     0.697416974     0.527675277     0.547857143       1
     0.733087331     0.526445264     0.547857143       2
     0.734317343     0.560885609     0.547857143       1
     0.769987700     0.559655597     0.547857143       2
     0.771217712     0.594095941     0.547857143       1
     0.806888069     0.592865929     0.547857143       2
     0.808118081     0.627306273     0.547857143       1
     0.843788438     0.626076261     0.547857143       2
     0.845018450     0.660516605     0.547857143       1
     0.880688807     0.659286593     0.547857143       2
     0.881918819     0.693726937     0.547857143       1
     0.917589176     0.692496925     0.547857143       2
     0.918819188     0.726937269     0.547857143       1
     0.954489545     0.725707257     0.547857143       2
     0.955719557     0.760147601     0.547857143       1
     0.991389914     0.758917589     0.547857143       2
     0.992619926     0.793357934     0.547857143       1
     0.028290283     0.792127921     0.547857143       2
     0.029520295     0.826568266     0.547857143       1
     0.065190652     0.825338253     0.547857143       2
     0.066420664     0.859778598     0.547857143       1
     0.102091021     0.858548585     0.547857143       2
     0.103321033     0.892988930     0.547857143       1
     0.138991390     0.891758918     0.547857143       2
     0.140221402     0.926199262     0.547857143       1
     0.175891759     0.924969250     0.547857143       2
     0.177121771     0.959409594     0.547857143       1
     0.212792128     0.958179582     0.547857143       2
     0.214022140     0.992619926     0.547857143       1
     0.249692497     0.991389914     0.547857143       2
     0.250922509     0.025830258     0.547857143       1
     0.286592866     0.024600246     0.547857143       2
     0.287822878     0.059040590     0.547857143       1
     0.323493235     0.057810578     0.547857143       2
     0.324723247     0.092250923     0.547857143       1
     0.360393604     0.091020910     0.547857143       2
     0.361623616     0.125461255     0.547857143       1
     0.397293973     0.124231242     0.547857143       2
     0.398523985     0.158671587     0.547857143       1
     0.434194342     0.157441574     0.547857143       2
     0.435424354     0.191881919     0.547857143       1
     0.471094711     0.190651907     0.547857143       2
     0.472324723     0.225092251     0.547857143       1
     0.507995080     0.223862239     0.547857143       2
     0.509225092     0.258302583     0.547857143       1
     0.544895449     0.257072571     0.547857143       2
     0.546125461     0.291512915     0.547857143       1
     0.581795818     0.290282903     0.547857143       2
     0.583025830     0.324723247     0.547857143       1
     0.618696187     0.323493235     0.547857143       2
     0.619926199     0.357933579     0.547857143       1
     0.655596556     0.356703567     0.547857143       2
     0.656826568     0.391143911     0.547857143       1
     0.692496925     0.389913899     0.547857143       2
     0.693726937     0.424354244     0.547857143       1
     0.729397294     0.423124231     0.547857143       2
     0.730627306     0.457564576     0.547857143       1
     0.766297663     0.456334563     0.547857143       2
     0.767527675     0.490774908     0.547857143       1
     0.803198032     0.489544895     0.547857143       2
     0.804428044     0.523985240     0.547857143       1
     0.840098401     0.522755228     0.547857143       2
     0.841328413     0.557195572     0.547857143       1
     0.876998770     0.555965560     0.547857143       2
     0.878228782     0.590405904     0.547857143       1
     0.913899139     0.589175892     0.547857143       2
     0.915129151     0.623616236     0.547857143       1
     0.950799508     0.622386224     0.547857143       2
     0.952029520     0.656826568     0.547857143       1
     0.987699877     0.655596556     0.547857143       2
     0.988929889     0.690036900     0.547857143       1
     0.024600246     0.688806888     0.547857143       2
     0.025830258     0.723247232     0.547857143       1
     0.061500615     0.722017220     0.547857143       2
     0.062730627     0.756457565     0.547857143       1
     0.098400984     0.755227552     0.547857143       2
     0.099630996     0.789667897     0.547857143       1
     0.135301353     0.788437884     0.547857143       2
     0.136531365     0.822878229     0.547857143       1
     0.172201722     0.821648216     0.547857143       2
     0.173431734     0.856088561     0.547857143       1
     0.209102091     0.854858549     0.547857143       2
     0.210332103     0.889298893     0.547857143       1
     0.246002460     0.888068881     0.547857143       2
     0.247232472     0.922509225     0.547857143       1
     0.282902829     0.921279213     0.547857143       2
     0.284132841     0.955719557     0.547857143       1
     0.319803198     0.954489545     0.547857143       2
     0.321033210     0.988929889     0.547857143       1
     0.356703567     0.987699877     0.547857143       2
     0.357933579     0.022140221     0.547857143       1
     0.393603936     0.020910209     0.547857143       2
     0.394833948     0.055350554     0.547857143       1
     0.430504305     0.054120541     0.547857143       2
     0.431734317     0.088560886     0.547857143       1
     0.467404674     0.087330873     0.547857143       2
     0.468634686     0.121771218     0.547857143       1
     0.504305043     0.120541205     0.547857143       2
     0.505535055     0.154981550     0.547857143       1
     0.541205412     0.153751538     0.547857143       2
     0.542435424     0.188191882     0.547857143       1
     0.578105781     0.186961870     0.547857143       2
     0.579335793     0.221402214     0.547857143       1
     0.615006150     0.220172202     0.547857143       2
     0.616236162     0.254612546     0.547857143       1
     0.651906519     0.253382534     0.547857143       2
     0.653136531     0.287822878     0.547857143       1
     0.688806888     0.286592866     0.547857143       2
     0.690036900     0.321033210     0.547857143       1
     0.725707257     0.319803198     0.547857143       2
     0.726937269     0.354243542     0.547857143       1
     0.762607626     0.353013530     0.547857143       2
     0.763837638     0.387453875     0.547857143       1
     0.799507995     0.386223862     0.547857143       2
     0.800738007     0.420664207     0.547857143       1
     0.836408364     0.419434194     0.547857143       2
     0.837638376     0.453874539     0.547857143       1
     0.873308733     0.452644526     0.547857143       2
     0.874538745     0.487084871     0.547857143       1
     0.910209102     0.485854859     0.547857143       2
     0.911439114     0.520295203     0.547857143       1
     0.947109471     0.519065191     0.547857143       2
     0.948339483     0.553505535     0.547857143       1
     0.984009840     0.552275523     0.547857143       2
     0.985239852     0.586715867     0.547857143       1
     0.020910209     0.585485855     0.547857143       2
     0.022140221     0.619926199     0.547857143       1
     0.057810578     0.618696187     0.547857143       2
     0.059040590     0.653136531     0.547857143       1
     0.094710947     0.651906519     0.547857143       2
     0.095940959     0.686346863     0.547857143       1
     0.131611316     0.685116851     0.547857143       2
     0.132841328     0.719557196     0.547857143       1
     0.168511685     0.718327183     0.547857143       2
     0.169741697     0.752767528     0.547857143       1
     0.205412054     0.751537515     0.547857143       2
     0.206642066     0.785977860     0.547857143       1
     0.242312423     0.784747847     0.547857143       2
     0.243542435     0.819188192     0.547857143       1
     0.279212792     0.817958180     0.547857143       2
     0.280442804     0.852398524     0.547857143       1
     0.316113161     0.851168512     0.547857143       2
     0.317343173     0.885608856     0.547857143       1
     0.353013530     0.884378844     0.547857143       2
     0.354243542     0.918819188     0.547857143       1
     0.389913899     0.917589176     0.547857143       2
     0.391143911     0.952029520     0.547857143       1
     0.426814268     0.950799508     0.547857143       2
     0.428044280     0.985239852     0.547857143       1
     0.463714637     0.984009840     0.547857143       2
     0.464944649     0.018450185     0.547857143       1
     0.500615006     0.017220172     0.547857143       2
     0.501845018     0.051660517     0.547857143       1
     0.537515375     0.050430504     0.547857143       2
     0.538745387     0.084870849     0.547857143       1
     0.574415744     0.083640836     0.547857143       2
     0.575645756     0.118081181     0.547857143       1
     0.611316113     0.116851169     0.547857143       2
     0.612546125     0.151291513     0.547857143       1
     0.648216482     0.150061501     0.547857143       2
     0.649446494     0.184501845     0.547857143       1
     0.685116851     0.183271833     0.547857143       2
     0.686346863     0.217712177     0.547857143       1
     0.722017220     0.216482165     0.547857143       2
     0.723247232     0.250922509     0.547857143       1
     0.758917589     0.249692497     0.547857143       2
     0.760147601     0.284132841     0.547857143       1
     0.795817958     0.282902829     0.547857143       2
     0.797047970     0.317343173     0.547857143       1
     0.832718327     0.316113161     0.547857143       2
     0.833948339     0.350553506     0.547857143       1
     0.869618696     0.349323493     0.547857143       2
     0.870848708     0.383763838     0.547857143       1
     0.906519065     0.382533825     0.547857143       2
     0.907749077     0.416974170     0.547857143       1
     0.943419434     0.415744157     0.547857143       2
     0.944649446     0.450184502     0.547857143       1
     0.980319803     0.448954490     0.547857143       2
     0.981549815     0.483394834     0.547857143       1
     0.017220172     0.482164822     0.547857143       2
     0.018450185     0.516605166     0.547857143       1
     0.054120541     0.515375154     0.547857143       2
     0.055350554     0.549815498     0.547857143       1
     0.091020910     0.548585486     0.547857143       2
     0.092250923     0.583025830     0.547857143       1
     0.127921279     0.581795818     0.547857143       2
     0.129151292     0.616236162     0.547857143       1
     0.164821648     0.615006150     0.547857143       2
     0.166051661     0.649446494     0.547857143       1
     0.201722017     0.648216482     0.547857143       2
     0.202952030     0.682656827     0.547857143       1
     0.238622386     0.681426814     0.547857143       2
     0.239852399     0.715867159     0.547857143       1
     0.275522755     0.714637146     0.547857143       2
     0.276752768     0.749077491     0.547857143       1
     0.312423124     0.747847478     0.547857143       2
     0.313653137     0.782287823     0.547857143       1
     0.349323493     0.781057811     0.547857143       2
     0.350553506     0.815498155     0.547857143       1
     0.386223862     0.814268143     0.547857143       2
     0.387453875     0.848708487     0.547857143       1
     0.423124231     0.847478475     0.547857143       2
     0.424354244     0.881918819     0.547857143       1
     0.460024600     0.880688807     0.547857143       2
     0.461254613     0.915129151     0.547857143       1
     0.496924969     0.913899139     0.547857143       2
     0.498154982     0.948339483     0.547857143       1
     0.533825338     0.947109471     0.547857143       2
     0.535055351     0.981549815     0.547857143       1
     0.570725707     0.980319803     0.547857143       2
     0.571955720     0.014760148     0.547857143       1
     0.607626076     0.013530135     0.547857143       2
     0.608856089     0.047970480     0.547857143       1
     0.644526445     0.046740467     0.547857143       2
     0.645756458     0.081180812     0.547857143       1
     0.681426814     0.079950800     0.547857143       2
     0.682656827     0.114391144     0.547857143       1
     0.718327183     0.113161132     0.547857143       2
     0.719557196     0.147601476     0.547857143       1
     0.755227552     0.146371464     0.547857143       2
     0.756457565     0.180811808     0.547857143       1
     0.792127921     0.179581796     0.547857143       2
     0.793357934     0.214022140     0.547857143       1
     0.829028290     0.212792128     0.547857143       2
     0.830258303     0.247232472     0.547857143       1
     0.865928659     0.246002460     0.547857143       2
     0.867158672     0.280442804     0.547857143       1
     0.902829028     0.279212792     0.547857143       2
     0.904059041     0.313653137     0.547857143       1
     0.939729397     0.312423124     0.547857143       2
     0.940959410     0.346863469     0.547857143       1
     0.976629766     0.345633456     0.547857143       2
     0.977859779     0.380073801     0.547857143       1
     0.013530135     0.378843788     0.547857143       2
     0.014760148     0.413284133     0.547857143       1
     0.050430504     0.412054121     0.547857143       2
     0.051660517     0.446494465     0.547857143       1
     0.087330873     0.445264453     0.547857143       2
     0.088560886     0.479704797     0.547857143       1
     0.124231242     0.478474785     0.547857143       2
     0.125461255     0.512915129     0.547857143       1
     0.161131611     0.511685117     0.547857143       2
     0.162361624     0.546125461     0.547857143       1
     0.198031980     0.544895449     0.547857143       2
     0.199261993     0.579335793     0.547857143       1
     0.234932349     0.578105781     0.547857143       2
     0.236162362     0.612546125     0.547857143       1
     0.271832718     0.611316113     0.547857143       2
     0.273062731     0.645756458     0.547857143       1
     0.308733087     0.644526445     0.547857143       2
     0.309963100     0.678966790     0.547857143       1
     0.345633456     0.677736777     0.547857143       2
     0.346863469     0.712177122     0.547857143       1
     0.382533825     0.710947109     0.547857143       2
     0.383763838     0.745387454     0.547857143       1
     0.419434194     0.744157442     0.547857143       2
     0.420664207     0.778597786     0.547857143       1
     0.456334563     0.777367774     0.547857143       2
     0.457564576     0.811808118     0.547857143       1
     0.493234932     0.810578106     0.547857143       2
     0.494464945     0.845018450     0.547857143       1
     0.530135301     0.843788438     0.547857143       2
     0.531365314     0.878228782     0.547857143       1
     0.567035670     0.876998770     0.547857143       2
     0.568265683     0.911439114     0.547857143       1
     0.603936039     0.910209102     0.547857143       2
     0.605166052     0.944649446     0.547857143       1
     0.640836408     0.943419434     0.547857143       2
     0.642066421     0.977859779     0.547857143       1
     0.677736777     0.976629766     0.547857143       2
     0.678966790     0.011070111     0.547857143       1
     0.714637146     0.009840098     0.547857143       2
     0.715867159     0.044280443     0.547857143       1
     0.751537515     0.043050431     0.547857143       2
     0.752767528     0.077490775     0.547857143       1
     0.788437884     0.076260763     0.547857143       2
     0.789667897     0.110701107     0.547857143       1
     0.825338253     0.109471095     0.547857143       2
     0.826568266     0.143911439     0.547857143       1
     0.862238622     0.142681427     0.547857143       2
     0.863468635     0.177121771     0.547857143       1
     0.899138991     0.175891759     0.547857143       2
     0.900369004     0.210332103     0.547857143       1
     0.936039360     0.209102091     0.547857143       2
     0.937269373     0.243542435     0.547857143       1
     0.972939729     0.242312423     0.547857143       2
     0.974169742     0.276752768     0.547857143       1
     0.009840098     0.275522755     0.547857143       2
     0.011070111     0.309963100     0.547857143       1
     0.046740467     0.308733087     0.547857143       2
     0.047970480     0.343173432     0.547857143       1
     0.083640836     0.341943419     0.547857143       2
     0.084870849     0.376383764     0.547857143       1
     0.120541205     0.375153752     0.547857143       2
     0.121771218     0.409594096     0.547857143       1
     0.157441574     0.408364084     0.547857143       2
     0.158671587     0.442804428     0.547857143       1
     0.194341943     0.441574416     0.547857143       2
     0.195571956     0.476014760     0.547857143       1
     0.231242312     0.474784748     0.547857143       2
     0.232472325     0.509225092     0.547857143       1
     0.268142681     0.507995080     0.547857143       2
     0.269372694     0.542435424     0.547857143       1
     0.305043050     0.541205412     0.547857143       2
     0.306273063     0.575645756     0.547857143       1
     0.341943419     0.574415744     0.547857143       2
     0.343173432     0.608856089     0.547857143       1
     0.378843788     0.607626076     0.547857143       2
     0.380073801     0.642066421     0.547857143       1
     0.415744157     0.640836408     0.547857143       2
     0.416974170     0.675276753     0.547857143       1
     0.452644526     0.674046740     0.547857143       2
     0.453874539     0.708487085     0.547857143       1
     0.489544895     0.707257073     0.547857143       2
     0.490774908     0.741697417     0.547857143       1
     0.526445264     0.740467405     0.547857143       2
     0.527675277     0.774907749     0.547857143       1
     0.563345633     0.773677737     0.547857143       2
     0.564575646     0.808118081     0.547857143       1
     0.600246002     0.806888069     0.547857143       2
     0.601476015     0.841328413     0.547857143       1
     0.637146371     0.840098401     0.547857143       2
     0.638376384     0.874538745     0.547857143       1
     0.674046740     0.873308733     0.547857143       2
     0.675276753     0.907749077     0.547857143       1
     0.710947109     0.906519065     0.547857143       2
     0.712177122     0.940959410     0.547857143       1
     0.747847478     0.939729397     0.547857143       2
     0.749077491     0.974169742     0.547857143       1
     0.784747847     0.972939729     0.547857143       2
     0.785977860     0.007380074     0.547857143       1
     0.821648216     0.006150062     0.547857143       2
     0.822878229     0.040590406     0.547857143       1
     0.858548585     0.039360394     0.547857143       2
     0.859778598     0.073800738     0.547857143       1
     0.895448954     0.072570726     0.547857143       2
     0.896678967     0.107011070     0.547857143       1
     0.932349323     0.105781058     0.547857143       2
     0.933579336     0.140221402     0.547857143       1
     0.969249692     0.138991390     0.547857143       2
     0.970479705     0.173431734     0.547857143       1
     0.006150062     0.172201722     0.547857143       2
     0.007380074     0.206642066     0.547857143       1
     0.043050431     0.205412054     0.547857143       2
     0.044280443     0.239852399     0.547857143       1
     0.079950800     0.238622386     0.547857143       2
     0.081180812     0.273062731     0.547857143       1
     0.116851169     0.271832718     0.547857143       2
     0.118081181     0.306273063     0.547857143       1
     0.153751538     0.305043050     0.547857143       2
     0.154981550     0.339483395     0.547857143       1
     0.190651907     0.338253383     0.547857143       2
     0.191881919     0.372693727     0.547857143       1
     0.227552276     0.371463715     0.547857143       2
     0.228782288     0.405904059     0.547857143       1
     0.264452645     0.404674047     0.547857143       2
     0.265682657     0.439114391     0.547857143       1
     0.301353014     0.437884379     0.547857143       2
     0.302583026     0.472324723     0.547857143       1
     0.338253383     0.471094711     0.547857143       2
     0.339483395     0.505535055     0.547857143       1
     0.375153752     0.504305043     0.547857143       2
     0.376383764     0.538745387     0.547857143       1
     0.412054121     0.537515375     0.547857143       2
     0.413284133     0.571955720     0.547857143       1
     0.448954490     0.570725707     0.547857143       2
     0.450184502     0.605166052     0.547857143       1
     0.485854859     0.603936039     0.547857143       2
     0.487084871     0.638376384     0.547857143       1
     0.522755228     0.637146371     0.547857143       2
     0.523985240     0.671586716     0.547857143       1
     0.559655597     0.670356704     0.547857143       2
     0.560885609     0.704797048     0.547857143       1
     0.596555966     0.703567036     0.547857143       2
     0.597785978     0.738007380     0.547857143       1
     0.633456335     0.736777368     0.547857143       2
     0.634686347     0.771217712     0.547857143       1
     0.670356704     0.769987700     0.547857143       2
     0.671586716     0.804428044     0.547857143       1
     0.707257073     0.803198032     0.547857143       2
     0.708487085     0.837638376     0.547857143       1
     0.744157442     0.836408364     0.547857143       2
     0.745387454     0.870848708     0.547857143       1
     0.781057811     0.869618696     0.547857143       2
     0.782287823     0.904059041     0.547857143       1
     0.817958180     0.902829028     0.547857143       2
     0.819188192     0.937269373     0.547857143       1
     0.854858549     0.936039360     0.547857143       2
     0.856088561     0.970479705     0.547857143       1
     0.891758918     0.969249692     0.547857143       2
     0.892988930     0.003690037     0.547857143       1
     0.928659287     0.002460025     0.547857143       2
     0.929889299     0.036900369     0.547857143       1
     0.965559656     0.035670357     0.547857143       2
     0.966789668     0.070110701     0.547857143       1
     0.002460025     0.068880689     0.547857143       2
     0.003690037     0.103321033     0.547857143       1
     0.039360394     0.102091021     0.547857143       2
     0.040590406     0.136531365     0.547857143       1
     0.076260763     0.135301353     0.547857143       2
     0.077490775     0.169741697     0.547857143       1
     0.113161132     0.168511685     0.547857143       2
     0.114391144     0.202952030     0.547857143       1
     0.150061501     0.201722017     0.547857143       2
     0.151291513     0.236162362     0.547857143       1
     0.186961870     0.234932349     0.547857143       2
     0.188191882     0.269372694     0.547857143       1
     0.223862239     0.268142681     0.547857143       2
     0.225092251     0.302583026     0.547857143       1
     0.260762608     0.301353014     0.547857143       2
     0.261992620     0.335793358     0.547857143       1
     0.297662977     0.334563346     0.547857143       2
     0.298892989     0.369003690     0.547857143       1
     0.334563346     0.367773678     0.547857143       2
     0.335793358     0.402214022     0.547857143       1
     0.371463715     0.400984010     0.547857143       2
     0.372693727     0.435424354     0.547857143       1
     0.408364084     0.434194342     0.547857143       2
     0.409594096     0.468634686     0.547857143       1
     0.445264453     0.467404674     0.547857143       2
     0.446494465     0.501845018     0.547857143       1
     0.482164822     0.500615006     0.547857143       2
     0.483394834     0.535055351     0.547857143       1
     0.519065191     0.533825338     0.547857143       2
     0.520295203     0.568265683     0.547857143       1
     0.555965560     0.567035670     0.547857143       2
     0.557195572     0.601476015     0.547857143       1
     0.592865929     0.600246002     0.547857143       2
     0.594095941     0.634686347     0.547857143       1
     0.629766298     0.633456335     0.547857143       2
     0.630996310     0.667896679     0.547857143       1
     0.666666667     0.666666667     0.547857143       2
     0.667896679     0.701107011     0.547857143       1
     0.703567036     0.699876999     0.547857143       2
     0.704797048     0.734317343     0.547857143       1
     0.740467405     0.733087331     0.547857143       2
     0.741697417     0.767527675     0.547857143       1
     0.777367774     0.766297663     0.547857143       2
     0.778597786     0.800738007     0.547857143       1
     0.814268143     0.799507995     0.547857143       2
     0.815498155     0.833948339     0.547857143       1
     0.851168512     0.832718327     0.547857143       2
     0.852398524     0.867158672     0.547857143       1
     0.888068881     0.865928659     0.547857143       2
     0.889298893     0.900369004     0.547857143       1
     0.924969250     0.899138991     0.547857143       2
     0.926199262     0.933579336     0.547857143       1
     0.961869619     0.932349323     0.547857143       2
     0.963099631     0.966789668     0.547857143       1
     0.998769988     0.965559656     0.547857143       2
     0.000000000     0.000000000     0.452142857       3
     0.034440344     0.001230012     0.452142857       4
     0.033210332     0.036900369     0.452142857       3
     0.067650677     0.038130381     0.452142857       4
     0.066420664     0.073800738     0.452142857       3
     0.100861009     0.075030750     0.452142857       4
     0.099630996     0.110701107     0.452142857       3
     0.134071341     0.111931119     0.452142857       4
     0.132841328     0.147601476     0.452142857       3
     0.167281673     0.148831488     0.452142857       4
     0.166051661     0.184501845     0.452142857       3
     0.200492005     0.185731857     0.452142857       4
     0.199261993     0.221402214     0.452142857       3
     0.233702337     0.222632226     0.452142857       4
     0.232472325     0.258302583     0.452142857       3
     0.266912669     0.259532595     0.452142857       4
     0.265682657     0.295202952     0.452142857       3
     0.300123001     0.296432964     0.452142857       4
     0.298892989     0.332103321     0.452142857       3
     0.333333333     0.333333333     0.452142857       4
     0.332103321     0.369003690     0.452142857       3
     0.366543665     0.370233702     0.452142857       4
     0.365313653     0.405904059     0.452142857       3
     0.399753998     0.407134071     0.452142857       4
     0.398523985     0.442804428     0.452142857       3
     0.432964330     0.444034440     0.452142857       4
     0.431734317     0.479704797     0.452142857       3
     0.466174662     0.480934809     0.452142857       4
     0.464944649     0.516605166     0.452142857       3
     0.499384994     0.517835178     0.452142857       4
     0.498154982     0.553505535     0.452142857       3
     0.532595326     0.554735547     0.452142857       4
     0.531365314     0.590405904     0.452142857       3
     0.565805658     0.591635916     0.452142857       4
     0.564575646     0.627306273     0.452142857       3
     0.599015990     0.628536285     0.452142857       4
     0.597785978     0.664206642     0.452142857       3
     0.632226322     0.665436654     0.452142857       4
     0.630996310     0.701107011     0.452142857       3
     0.665436654     0.702337023     0.452142857       4
     0.664206642     0.738007380     0.452142857       3
     0.698646986     0.739237392     0.452142857       4
     0.697416974     0.774907749     0.452142857       3
     0.731857319     0.776137761     0.452142857       4
     0.730627306     0.811808118     0.452142857       3
     0.765067651     0.813038130     0.452142857       4
     0.763837638     0.848708487     0.452142857       3
     0.798277983     0.849938499     0.452142857       4
     0.797047970     0.885608856     0.452142857       3
     0.831488315     0.886838868     0.452142857       4
     0.830258303     0.922509225     0.452142857       3
     0.864698647     0.923739237     0.452142857       4
     0.863468635     0.959409594     0.452142857       3
     0.897908979     0.960639606     0.452142857       4
     0.896678967     0.996309963     0.452142857       3
     0.931119311     0.997539975     0.452142857       4
     0.929889299     0.033210332     0.452142857       3
     0.964329643     0.034440344     0.452142857       4
     0.963099631     0.070110701     0.452142857       3
     0.997539975     0.071340713     0.452142857       4
     0.996309963     0.107011070     0.452142857       3
     0.030750308     0.108241082     0.452142857       4
     0.029520295     0.143911439     0.452142857       3
     0.063960640     0.145141451     0.452142857       4
     0.062730627     0.180811808     0.452142857       3
     0.097170972     0.182041820     0.452142857       4
     0.095940959     0.217712177     0.452142857       3
     0.130381304     0.218942189     0.452142857       4
     0.129151292     0.254612546     0.452142857       3
     0.163591636     0.255842558     0.452142857       4
     0.162361624     0.291512915     0.452142857       3
     0.196801968     0.292742927     0.452142857       4
     0.195571956     0.328413284     0.452142857       3
     0.230012300     0.329643296     0.452142857       4
     0.228782288     0.365313653     0.452142857       3
     0.263222632     0.366543665     0.452142857       4
     0.261992620     0.402214022     0.452142857       3
     0.296432964     0.403444034     0.452142857       4
     0.295202952     0.439114391     0.452142857       3
     0.329643296     0.440344403     0.452142857       4
     0.328413284     0.476014760     0.452142857       3
     0.362853629     0.477244772     0.452142857       4
     0.361623616     0.512915129     0.452142857       3
     0.396063961     0.514145141     0.452142857       4
     0.394833948     0.549815498     0.452142857       3
     0.429274293     0.551045510     0.452142857       4
     0.428044280     0.586715867     0.452142857       3
     0.462484625     0.587945879     0.452142857       4
     0.461254613     0.623616236     0.452142857       3
     0.495694957     0.624846248     0.452142857       4
     0.494464945     0.660516605     0.452142857       3
     0.528905289     0.661746617     0.452142857       4
     0.527675277     0.697416974     0.452142857       3
     0.562115621     0.698646986     0.452142857       4
     0.560885609     0.734317343     0.452142857       3
     0.595325953     0.735547355     0.452142857       4
     0.594095941     0.771217712     0.452142857       3
     0.628536285     0.772447724     0.452142857       4
     0.627306273     0.808118081     0.452142857       3
     0.661746617     0.809348093     0.452142857       4
     0.660516605     0.845018450     0.452142857       3
     0.694956950     0.846248462     0.452142857       4
     0.693726937     0.881918819     0.452142857       3
     0.728167282     0.883148831     0.452142857       4
     0.726937269     0.918819188     0.452142857       3
     0.761377614     0.920049200     0.452142857       4
     0.760147601     0.955719557     0.452142857       3
     0.794587946     0.956949569     0.452142857       4
     0.793357934     0.992619926     0.452142857       3
     0.827798278     0.993849938     0.452142857       4
     0.826568266     0.029520295     0.452142857       3
     0.861008610     0.030750308     0.452142857       4
     0.859778598     0.066420664     0.452142857       3
     0.894218942     0.067650677     0.452142857       4
     0.892988930     0.103321033     0.452142857       3
     0.927429274     0.104551046     0.452142857       4
     0.926199262     0.140221402     0.452142857       3
     0.960639606     0.141451415     0.452142857       4
     0.959409594     0.177121771     0.452142857       3
     0.993849938     0.178351784     0.452142857       4
     0.992619926     0.214022140     0.452142857       3
     0.027060271     0.215252153     0.452142857       4
     0.025830258     0.250922509     0.452142857       3
     0.060270603     0.252152522     0.452142857       4
     0.059040590     0.287822878     0.452142857       3
     0.093480935     0.289052891     0.452142857       4
     0.092250923     0.324723247     0.452142857       3
     0.126691267     0.325953260     0.452142857       4
     0.125461255     0.361623616     0.452142857       3
     0.159901599     0.362853629     0.452142857       4
     0.158671587     0.398523985     0.452142857       3
     0.193111931     0.399753998     0.452142857       4
     0.191881919     0.435424354     0.452142857       3
     0.226322263     0.436654367     0.452142857       4
     0.225092251     0.472324723     0.452142857       3
     0.259532595     0.473554736     0.452142857       4
     0.258302583     0.509225092     0.452142857       3
     0.292742927     0.510455105     0.452142857       4
     0.291512915     0.546125461     0.452142857       3
     0.325953260     0.547355474     0.452142857       4
     0.324723247     0.583025830     0.452142857       3
     0.359163592     0.584255843     0.452142857       4
     0.357933579     0.619926199     0.452142857       3
     0.392373924     0.621156212     0.452142857       4
     0.391143911     0.656826568     0.452142857       3
     0.425584256     0.658056581     0.452142857       4
     0.424354244     0.693726937     0.452142857       3
     0.458794588     0.694956950     0.452142857       4
     0.457564576     0.730627306     0.452142857       3
     0.492004920     0.731857319     0.452142857       4
     0.490774908     0.767527675     0.452142857       3
     0.525215252     0.768757688     0.452142857       4
     0.523985240     0.804428044     0.452142857       3
     0.558425584     0.805658057     0.452142857       4
     0.557195572     0.841328413     0.452142857       3
     0.591635916     0.842558426     0.452142857       4
     0.590405904     0.878228782     0.452142857       3
     0.624846248     0.879458795     0.452142857       4
     0.623616236     0.915129151     0.452142857       3
     0.658056581     0.916359164     0.452142857       4
     0.656826568     0.952029520     0.452142857       3
     0.691266913     0.953259533     0.452142857       4
     0.690036900     0.988929889     0.452142857       3
     0.724477245     0.990159902     0.452142857       4
     0.723247232     0.025830258     0.452142857       3
     0.757687577     0.027060271     0.452142857       4
     0.756457565     0.062730627     0.452142857       3
     0.790897909     0.063960640     0.452142857       4
     0.789667897     0.099630996     0.452142857       3
     0.824108241     0.100861009     0.452142857       4
     0.822878229     0.136531365     0.452142857       3
     0.857318573     0.137761378     0.452142857       4
     0.856088561     0.173431734     0.452142857       3
     0.890528905     0.174661747     0.452142857       4
     0.889298893     0.210332103     0.452142857       3
     0.923739237     0.211562116     0.452142857       4
     0.922509225     0.247232472     0.452142857       3
     0.956949569     0.248462485     0.452142857       4
     0.955719557     0.284132841     0.452142857       3
     0.990159902     0.285362854     0.452142857       4
     0.988929889     0.321033210     0.452142857       3
     0.023370234     0.322263223     0.452142857       4
     0.022140221     0.357933579     0.452142857       3
     0.056580566     0.359163592     0.452142857       4
     0.055350554     0.394833948     0.452142857       3
     0.089790898     0.396063961     0.452142857       4
     0.088560886     0.431734317     0.452142857       3
     0.123001230     0.432964330     0.452142857       4
     0.121771218     0.468634686     0.452142857       3
     0.156211562     0.469864699     0.452142857       4
     0.154981550     0.505535055     0.452142857       3
     0.189421894     0.506765068     0.452142857       4
     0.188191882     0.542435424     0.452142857       3
     0.222632226     0.543665437     0.452142857       4
     0.221402214     0.579335793     0.452142857       3
     0.255842558     0.580565806     0.452142857       4
     0.254612546     0.616236162     0.452142857       3
     0.289052891     0.617466175     0.452142857       4
     0.287822878     0.653136531     0.452142857       3
     0.322263223     0.654366544     0.452142857       4
     0.321033210     0.690036900     0.452142857       3
     0.355473555     0.691266913     0.452142857       4
     0.354243542     0.726937269     0.452142857       3
     0.388683887     0.728167282     0.452142857       4
     0.387453875     0.763837638     0.452142857       3
     0.421894219     0.765067651     0.452142857       4
     0.420664207     0.800738007     0.452142857       3
     0.455104551     0.801968020     0.452142857       4
     0.453874539     0.837638376     0.452142857       3
     0.488314883     0.838868389     0.452142857       4
     0.487084871     0.874538745     0.452142857       3
     0.521525215     0.875768758     0.452142857       4
     0.520295203     0.911439114     0.452142857       3
     0.554735547     0.912669127     0.452142857       4
     0.553505535     0.948339483     0.452142857       3
     0.587945879     0.949569496     0.452142857       4
     0.586715867     0.985239852     0.452142857       3
     0.621156212     0.986469865     0.452142857       4
     0.619926199     0.022140221     0.452142857       3
     0.654366544     0.023370234     0.452142857       4
     0.653136531     0.059040590     0.452142857       3
     0.687576876     0.060270603     0.452142857       4
     0.686346863     0.095940959     0.452142857       3
     0.720787208     0.097170972     0.452142857       4
     0.719557196     0.132841328     0.452142857       3
     0.753997540     0.134071341     0.452142857       4
     0.752767528     0.169741697     0.452142857       3
     0.787207872     0.170971710     0.452142857       4
     0.785977860     0.206642066     0.452142857       3
     0.820418204     0.207872079     0.452142857       4
     0.819188192     0.243542435     0.452142857       3
     0.853628536     0.244772448     0.452142857       4
     0.852398524     0.280442804     0.452142857       3
     0.886838868     0.281672817     0.452142857       4
     0.885608856     0.317343173     0.452142857       3
     0.920049200     0.318573186     0.452142857       4
     0.918819188     0.354243542     0.452142857       3
     0.953259533     0.355473555     0.452142857       4
     0.952029520     0.391143911     0.452142857       3
     0.986469865     0.392373924     0.452142857       4
     0.985239852     0.428044280     0.452142857       3
     0.019680197     0.429274293     0.452142857       4
     0.018450185     0.464944649     0.452142857       3
     0.052890529     0.466174662     0.452142857       4
     0.051660517     0.501845018     0.452142857       3
     0.086100861     0.503075031     0.452142857       4
     0.084870849     0.538745387     0.452142857       3
     0.119311193     0.539975400     0.452142857       4
     0.118081181     0.575645756     0.452142857       3
     0.152521525     0.576875769     0.452142857       4
     0.151291513     0.612546125     0.452142857       3
     0.185731857     0.613776138     0.452142857       4
     0.184501845     0.649446494     0.452142857       3
     0.218942189     0.650676507     0.452142857       4
     0.217712177     0.686346863     0.452142857       3
     0.252152522     0.687576876     0.452142857       4
     0.250922509     0.723247232     0.452142857       3
     0.285362854     0.724477245     0.452142857       4
     0.284132841     0.760147601     0.452142857       3
     0.318573186     0.761377614     0.452142857       4
     0.317343173     0.797047970     0.452142857       3
     0.351783518     0.798277983     0.452142857       4
     0.350553506     0.833948339     0.452142857       3
     0.384993850     0.835178352     0.452142857       4
     0.383763838     0.870848708     0.452142857       3
     0.418204182     0.872078721     0.452142857       4
     0.416974170     0.907749077     0.452142857       3
     0.451414514     0.908979090     0.452142857       4
     0.450184502     0.944649446     0.452142857       3
     0.484624846     0.945879459     0.452142857       4
     0.483394834     0.981549815     0.452142857       3
     0.517835178     0.982779828     0.452142857       4
     0.516605166     0.018450185     0.452142857       3
     0.551045510     0.019680197     0.452142857       4
     0.549815498     0.055350554     0.452142857       3
     0.584255843     0.056580566     0.452142857       4
     0.583025830     0.092250923     0.452142857       3
     0.617466175     0.093480935     0.452142857       4
     0.616236162     0.129151292     0.452142857       3
     0.650676507     0.130381304     0.452142857       4
     0.649446494     0.166051661     0.452142857       3
     0.683886839     0.167281673     0.452142857       4
     0.682656827     0.202952030     0.452142857       3
     0.717097171     0.204182042     0.452142857       4
     0.715867159     0.239852399     0.452142857       3
     0.750307503     0.241082411     0.452142857       4
     0.749077491     0.276752768     0.452142857       3
     0.783517835     0.277982780     0.452142857       4
     0.782287823     0.313653137     0.452142857       3
     0.816728167     0.314883149     0.452142857       4
     0.815498155     0.350553506     0.452142857       3
     0.849938499     0.351783518     0.452142857       4
     0.848708487     0.387453875     0.452142857       3
     0.883148831     0.388683887     0.452142857       4
     0.881918819     0.424354244     0.452142857       3
     0.916359164     0.425584256     0.452142857       4
     0.915129151     0.461254613     0.452142857       3
     0.949569496     0.462484625     0.452142857       4
     0.948339483     0.498154982     0.452142857       3
     0.982779828     0.499384994     0.452142857       4
     0.981549815     0.535055351     0.452142857       3
     0.015990160     0.536285363     0.452142857       4
     0.014760148     0.571955720     0.452142857       3
     0.049200492     0.573185732     0.452142857       4
     0.047970480     0.608856089     0.452142857       3
     0.082410824     0.610086101     0.452142857       4
     0.081180812     0.645756458     0.452142857       3
     0.115621156     0.646986470     0.452142857       4
     0.114391144     0.682656827     0.452142857       3
     0.148831488     0.683886839     0.452142857       4
     0.147601476     0.719557196     0.452142857       3
     0.182041820     0.720787208     0.452142857       4
     0.180811808     0.756457565     0.452142857       3
     0.215252153     0.757687577     0.452142857       4
     0.214022140     0.793357934     0.452142857       3
     0.248462485     0.794587946     0.452142857       4
     0.247232472     0.830258303     0.452142857       3
     0.281672817     0.831488315     0.452142857       4
     0.280442804     0.867158672     0.452142857       3
     0.314883149     0.868388684     0.452142857       4
     0.313653137     0.904059041     0.452142857       3
     0.348093481     0.905289053     0.452142857       4
     0.346863469     0.940959410     0.452142857       3
     0.381303813     0.942189422     0.452142857       4
     0.380073801     0.977859779     0.452142857       3
     0.414514145     0.979089791     0.452142857       4
     0.413284133     0.014760148     0.452142857       3
     0.447724477     0.015990160     0.452142857       4
     0.446494465     0.051660517     0.452142857       3
     0.480934809     0.052890529     0.452142857       4
     0.479704797     0.088560886     0.452142857       3
     0.514145141     0.089790898     0.452142857       4
     0.512915129     0.125461255     0.452142857       3
     0.547355474     0.126691267     0.452142857       4
     0.546125461     0.162361624     0.452142857       3
     0.580565806     0.163591636     0.452142857       4
     0.579335793     0.199261993     0.452142857       3
     0.613776138     0.200492005     0.452142857       4
     0.612546125     0.236162362     0.452142857       3
     0.646986470     0.237392374     0.452142857       4
     0.645756458     0.273062731     0.452142857       3
     0.680196802     0.274292743     0.452142857       4
     0.678966790     0.309963100     0.452142857       3
     0.713407134     0.311193112     0.452142857       4
     0.712177122     0.346863469     0.452142857       3
     0.746617466     0.348093481     0.452142857       4
     0.745387454     0.383763838     0.452142857       3
     0.779827798     0.384993850     0.452142857       4
     0.778597786     0.420664207     0.452142857       3
     0.813038130     0.421894219     0.452142857       4
     0.811808118     0.457564576     0.452142857       3
     0.846248462     0.458794588     0.452142857       4
     0.845018450     0.494464945     0.452142857       3
     0.879458795     0.495694957     0.452142857       4
     0.878228782     0.531365314     0.452142857       3
     0.912669127     0.532595326     0.452142857       4
     0.911439114     0.568265683     0.452142857       3
     0.945879459     0.569495695     0.452142857       4
     0.944649446     0.605166052     0.452142857       3
     0.979089791     0.606396064     0.452142857       4
     0.977859779     0.642066421     0.452142857       3
     0.012300123     0.643296433     0.452142857       4
     0.011070111     0.678966790     0.452142857       3
     0.045510455     0.680196802     0.452142857       4
     0.044280443     0.715867159     0.452142857       3
     0.078720787     0.717097171     0.452142857       4
     0.077490775     0.752767528     0.452142857       3
     0.111931119     0.753997540     0.452142857       4
     0.110701107     0.789667897     0.452142857       3
     0.145141451     0.790897909     0.452142857       4
     0.143911439     0.826568266     0.452142857       3
     0.178351784     0.827798278     0.452142857       4
     0.177121771     0.863468635     0.452142857       3
     0.211562116     0.864698647     0.452142857       4
     0.210332103     0.900369004     0.452142857       3
     0.244772448     0.901599016     0.452142857       4
     0.243542435     0.937269373     0.452142857       3
     0.277982780     0.938499385     0.452142857       4
     0.276752768     0.974169742     0.452142857       3
     0.311193112     0.975399754     0.452142857       4
     0.309963100     0.011070111     0.452142857       3
     0.344403444     0.012300123     0.452142857       4
     0.343173432     0.047970480     0.452142857       3
     0.377613776     0.049200492     0.452142857       4
     0.376383764     0.084870849     0.452142857       3
     0.410824108     0.086100861     0.452142857       4
     0.409594096     0.121771218     0.452142857       3
     0.444034440     0.123001230     0.452142857       4
     0.442804428     0.158671587     0.452142857       3
     0.477244772     0.159901599     0.452142857       4
     0.476014760     0.195571956     0.452142857       3
     0.510455105     0.196801968     0.452142857       4
     0.509225092     0.232472325     0.452142857       3
     0.543665437     0.233702337     0.452142857       4
     0.542435424     0.269372694     0.452142857       3
     0.576875769     0.270602706     0.452142857       4
     0.575645756     0.306273063     0.452142857       3
     0.610086101     0.307503075     0.452142857       4
     0.608856089     0.343173432     0.452142857       3
     0.643296433     0.344403444     0.452142857       4
     0.642066421     0.380073801     0.452142857       3
     0.676506765     0.381303813     0.452142857       4
     0.675276753     0.416974170     0.452142857       3
     0.709717097     0.418204182     0.452142857       4
     0.708487085     0.453874539     0.452142857       3
     0.742927429     0.455104551     0.452142857       4
     0.741697417     0.490774908     0.452142857       3
     0.776137761     0.492004920     0.452142857       4
     0.774907749     0.527675277     0.452142857       3
     0.809348093     0.528905289     0.452142857       4
     0.808118081     0.564575646     0.452142857       3
     0.842558426     0.565805658     0.452142857       4
     0.841328413     0.601476015     0.452142857       3
     0.875768758     0.602706027     0.452142857       4
     0.874538745     0.638376384     0.452142857       3
     0.908979090     0.639606396     0.452142857       4
     0.907749077     0.675276753     0.452142857       3
     0.942189422     0.676506765     0.452142857       4
     0.940959410     0.712177122     0.452142857       3
     0.975399754     0.713407134     0.452142857       4
     0.974169742     0.749077491     0.452142857       3
     0.008610086     0.750307503     0.452142857       4
     0.007380074     0.785977860     0.452142857       3
     0.041820418     0.787207872     0.452142857       4
     0.040590406     0.822878229     0.452142857       3
     0.075030750     0.824108241     0.452142857       4
     0.073800738     0.859778598     0.452142857       3
     0.108241082     0.861008610     0.452142857       4
     0.107011070     0.896678967     0.452142857       3
     0.141451415     0.897908979     0.452142857       4
     0.140221402     0.933579336     0.452142857       3
     0.174661747     0.934809348     0.452142857       4
     0.173431734     0.970479705     0.452142857       3
     0.207872079     0.971709717     0.452142857       4
     0.206642066     0.007380074     0.452142857       3
     0.241082411     0.008610086     0.452142857       4
     0.239852399     0.044280443     0.452142857       3
     0.274292743     0.045510455     0.452142857       4
     0.273062731     0.081180812     0.452142857       3
     0.307503075     0.082410824     0.452142857       4
     0.306273063     0.118081181     0.452142857       3
     0.340713407     0.119311193     0.452142857       4
     0.339483395     0.154981550     0.452142857       3
     0.373923739     0.156211562     0.452142857       4
     0.372693727     0.191881919     0.452142857       3
     0.407134071     0.193111931     0.452142857       4
     0.405904059     0.228782288     0.452142857       3
     0.440344403     0.230012300     0.452142857       4
     0.439114391     0.265682657     0.452142857       3
     0.473554736     0.266912669     0.452142857       4
     0.472324723     0.302583026     0.452142857       3
     0.506765068     0.303813038     0.452142857       4
     0.505535055     0.339483395     0.452142857       3
     0.539975400     0.340713407     0.452142857       4
     0.538745387     0.376383764     0.452142857       3
     0.573185732     0.377613776     0.452142857       4
     0.571955720     0.413284133     0.452142857       3
     0.606396064     0.414514145     0.452142857       4
     0.605166052     0.450184502     0.452142857       3
     0.639606396     0.451414514     0.452142857       4
     0.638376384     0.487084871     0.452142857       3
     0.672816728     0.488314883     0.452142857       4
     0.671586716     0.523985240     0.452142857       3
     0.706027060     0.525215252     0.452142857       4
     0.704797048     0.560885609     0.452142857       3
     0.739237392     0.562115621     0.452142857       4
     0.738007380     0.597785978     0.452142857       3
     0.772447724     0.599015990     0.452142857       4
     0.771217712     0.634686347     0.452142857       3
     0.805658057     0.635916359     0.452142857       4
     0.804428044     0.671586716     0.452142857       3
     0.838868389     0.672816728     0.452142857       4
     0.837638376     0.708487085     0.452142857       3
     0.872078721     0.709717097     0.452142857       4
     0.870848708     0.745387454     0.452142857       3
     0.905289053     0.746617466     0.452142857       4
     0.904059041     0.782287823     0.452142857       3
     0.938499385     0.783517835     0.452142857       4
     0.937269373     0.819188192     0.452142857       3
     0.971709717     0.820418204     0.452142857       4
     0.970479705     0.856088561     0.452142857       3
     0.004920049     0.857318573     0.452142857       4
     0.003690037     0.892988930     0.452142857       3
     0.038130381     0.894218942     0.452142857       4
     0.036900369     0.929889299     0.452142857       3
     0.071340713     0.931119311     0.452142857       4
     0.070110701     0.966789668     0.452142857       3
     0.104551046     0.968019680     0.452142857       4
     0.103321033     0.003690037     0.452142857       3
     0.137761378     0.004920049     0.452142857       4
     0.136531365     0.040590406     0.452142857       3
     0.170971710     0.041820418     0.452142857       4
     0.169741697     0.077490775     0.452142857       3
     0.204182042     0.078720787     0.452142857       4
     0.202952030     0.114391144     0.452142857       3
     0.237392374     0.115621156     0.452142857       4
     0.236162362     0.151291513     0.452142857       3
     0.270602706     0.152521525     0.452142857       4
     0.269372694     0.188191882     0.452142857       3
     0.303813038     0.189421894     0.452142857       4
     0.302583026     0.225092251     0.452142857       3
     0.337023370     0.226322263     0.452142857       4
     0.335793358     0.261992620     0.452142857       3
     0.370233702     0.263222632     0.452142857       4
     0.369003690     0.298892989     0.452142857       3
     0.403444034     0.300123001     0.452142857       4
     0.402214022     0.335793358     0.452142857       3
     0.436654367     0.337023370     0.452142857       4
     0.435424354     0.372693727     0.452142857       3
     0.469864699     0.373923739     0.452142857       4
     0.468634686     0.409594096     0.452142857       3
     0.503075031     0.410824108     0.452142857       4
     0.501845018     0.446494465     0.452142857       3
     0.536285363     0.447724477     0.452142857       4
     0.535055351     0.483394834     0.452142857       3
     0.569495695     0.484624846     0.452142857       4
     0.568265683     0.520295203     0.452142857       3
     0.602706027     0.521525215     0.452142857       4
     0.601476015     0.557195572     0.452142857       3
     0.635916359     0.558425584     0.452142857       4
     0.634686347     0.594095941     0.452142857       3
     0.669126691     0.595325953     0.452142857       4
     0.667896679     0.630996310     0.452142857       3
     0.702337023     0.632226322     0.452142857       4
     0.701107011     0.667896679     0.452142857       3
     0.735547355     0.669126691     0.452142857       4
     0.734317343     0.704797048     0.452142857       3
     0.768757688     0.706027060     0.452142857       4
     0.767527675     0.741697417     0.452142857       3
     0.801968020     0.742927429     0.452142857       4
     0.800738007     0.778597786     0.452142857       3
     0.835178352     0.779827798     0.452142857       4
     0.833948339     0.815498155     0.452142857       3
     0.868388684     0.816728167     0.452142857       4
     0.867158672     0.852398524     0.452142857       3
     0.901599016     0.853628536     0.452142857       4
     0.900369004     0.889298893     0.452142857       3
     0.934809348     0.890528905     0.452142857       4
     0.933579336     0.926199262     0.452142857       3
     0.968019680     0.927429274     0.452142857       4
     0.966789668     0.963099631     0.452142857       3
     0.001230012     0.964329643     0.452142857       4
%endblock AtomicCoordinatesAndAtomicSpecies
