NumberOfSpecies3
%block ChemicalSpeciesLabel
       1       6    C                                                           
       2       5    B                                                           
       3       7    N                                                           
%endblock ChemicalSpeciesLabel
NumberOfAtoms  13468
LatticeConstant  1.00 Ang
%block LatticeVectors
   123.000000000    72.434364773     0.000000000
    -1.230000000   142.738307052     0.000000000
     0.000000000     0.000000000    35.000000000
%endblock LatticeVectors

AtomicCoordinatesFormat     Fractional
%block AtomicCoordinatesAndAtomicSpecies
     0.009999010     0.999901000     0.547142857       1
     0.019998020     0.999802000     0.547142857       1
     0.020097020     0.009702010     0.547142857       1
     0.030096030     0.009603010     0.547142857       1
     0.030195030     0.019503020     0.547142857       1
     0.040194040     0.019404019     0.547142857       1
     0.040293040     0.029304029     0.547142857       1
     0.050292050     0.029205029     0.547142857       1
     0.050391050     0.039105039     0.547142857       1
     0.060390060     0.039006039     0.547142857       1
     0.060489060     0.048906049     0.547142857       1
     0.070488070     0.048807049     0.547142857       1
     0.070587071     0.058707059     0.547142857       1
     0.080586081     0.058608059     0.547142857       1
     0.080685081     0.068508069     0.547142857       1
     0.090684091     0.068409068     0.547142857       1
     0.090783091     0.078309078     0.547142857       1
     0.100782101     0.078210078     0.547142857       1
     0.100881101     0.088110088     0.547142857       1
     0.110880111     0.088011088     0.547142857       1
     0.110979111     0.097911098     0.547142857       1
     0.120978121     0.097812098     0.547142857       1
     0.121077121     0.107712108     0.547142857       1
     0.131076131     0.107613108     0.547142857       1
     0.131175131     0.117513118     0.547142857       1
     0.141174141     0.117414117     0.547142857       1
     0.141273141     0.127314127     0.547142857       1
     0.151272151     0.127215127     0.547142857       1
     0.151371151     0.137115137     0.547142857       1
     0.161370161     0.137016137     0.547142857       1
     0.161469161     0.146916147     0.547142857       1
     0.171468171     0.146817147     0.547142857       1
     0.171567172     0.156717157     0.547142857       1
     0.181566182     0.156618157     0.547142857       1
     0.181665182     0.166518167     0.547142857       1
     0.191664192     0.166419166     0.547142857       1
     0.191763192     0.176319176     0.547142857       1
     0.201762202     0.176220176     0.547142857       1
     0.201861202     0.186120186     0.547142857       1
     0.211860212     0.186021186     0.547142857       1
     0.211959212     0.195921196     0.547142857       1
     0.221958222     0.195822196     0.547142857       1
     0.222057222     0.205722206     0.547142857       1
     0.232056232     0.205623206     0.547142857       1
     0.232155232     0.215523216     0.547142857       1
     0.242154242     0.215424215     0.547142857       1
     0.242253242     0.225324225     0.547142857       1
     0.252252252     0.225225225     0.547142857       1
     0.252351252     0.235125235     0.547142857       1
     0.262350262     0.235026235     0.547142857       1
     0.262449262     0.244926245     0.547142857       1
     0.272448272     0.244827245     0.547142857       1
     0.272547273     0.254727255     0.547142857       1
     0.282546283     0.254628255     0.547142857       1
     0.282645283     0.264528265     0.547142857       1
     0.292644293     0.264429264     0.547142857       1
     0.292743293     0.274329274     0.547142857       1
     0.302742303     0.274230274     0.547142857       1
     0.302841303     0.284130284     0.547142857       1
     0.312840313     0.284031284     0.547142857       1
     0.312939313     0.293931294     0.547142857       1
     0.322938323     0.293832294     0.547142857       1
     0.323037323     0.303732304     0.547142857       1
     0.333036333     0.303633304     0.547142857       1
     0.333135333     0.313533314     0.547142857       1
     0.343134343     0.313434313     0.547142857       1
     0.343233343     0.323334323     0.547142857       1
     0.353232353     0.323235323     0.547142857       1
     0.353331353     0.333135333     0.547142857       1
     0.363330363     0.333036333     0.547142857       1
     0.363429363     0.342936343     0.547142857       1
     0.373428373     0.342837343     0.547142857       1
     0.373527374     0.352737353     0.547142857       1
     0.383526384     0.352638353     0.547142857       1
     0.383625384     0.362538363     0.547142857       1
     0.393624394     0.362439362     0.547142857       1
     0.393723394     0.372339372     0.547142857       1
     0.403722404     0.372240372     0.547142857       1
     0.403821404     0.382140382     0.547142857       1
     0.413820414     0.382041382     0.547142857       1
     0.413919414     0.391941392     0.547142857       1
     0.423918424     0.391842392     0.547142857       1
     0.424017424     0.401742402     0.547142857       1
     0.434016434     0.401643402     0.547142857       1
     0.434115434     0.411543412     0.547142857       1
     0.444114444     0.411444411     0.547142857       1
     0.444213444     0.421344421     0.547142857       1
     0.454212454     0.421245421     0.547142857       1
     0.454311454     0.431145431     0.547142857       1
     0.464310464     0.431046431     0.547142857       1
     0.464409464     0.440946441     0.547142857       1
     0.474408474     0.440847441     0.547142857       1
     0.474507475     0.450747451     0.547142857       1
     0.484506485     0.450648451     0.547142857       1
     0.484605485     0.460548461     0.547142857       1
     0.494604495     0.460449460     0.547142857       1
     0.494703495     0.470349470     0.547142857       1
     0.504702505     0.470250470     0.547142857       1
     0.504801505     0.480150480     0.547142857       1
     0.514800515     0.480051480     0.547142857       1
     0.514899515     0.489951490     0.547142857       1
     0.524898525     0.489852490     0.547142857       1
     0.524997525     0.499752500     0.547142857       1
     0.534996535     0.499653500     0.547142857       1
     0.535095535     0.509553510     0.547142857       1
     0.545094545     0.509454509     0.547142857       1
     0.545193545     0.519354519     0.547142857       1
     0.555192555     0.519255519     0.547142857       1
     0.555291555     0.529155529     0.547142857       1
     0.565290565     0.529056529     0.547142857       1
     0.565389565     0.538956539     0.547142857       1
     0.575388575     0.538857539     0.547142857       1
     0.575487575     0.548757549     0.547142857       1
     0.585486585     0.548658549     0.547142857       1
     0.585585586     0.558558559     0.547142857       1
     0.595584596     0.558459558     0.547142857       1
     0.595683596     0.568359568     0.547142857       1
     0.605682606     0.568260568     0.547142857       1
     0.605781606     0.578160578     0.547142857       1
     0.615780616     0.578061578     0.547142857       1
     0.615879616     0.587961588     0.547142857       1
     0.625878626     0.587862588     0.547142857       1
     0.625977626     0.597762598     0.547142857       1
     0.635976636     0.597663598     0.547142857       1
     0.636075636     0.607563608     0.547142857       1
     0.646074646     0.607464607     0.547142857       1
     0.646173646     0.617364617     0.547142857       1
     0.656172656     0.617265617     0.547142857       1
     0.656271656     0.627165627     0.547142857       1
     0.666270666     0.627066627     0.547142857       1
     0.666369666     0.636966637     0.547142857       1
     0.676368676     0.636867637     0.547142857       1
     0.676467676     0.646767647     0.547142857       1
     0.686466686     0.646668647     0.547142857       1
     0.686565687     0.656568657     0.547142857       1
     0.696564697     0.656469656     0.547142857       1
     0.696663697     0.666369666     0.547142857       1
     0.706662707     0.666270666     0.547142857       1
     0.706761707     0.676170676     0.547142857       1
     0.716760717     0.676071676     0.547142857       1
     0.716859717     0.685971686     0.547142857       1
     0.726858727     0.685872686     0.547142857       1
     0.726957727     0.695772696     0.547142857       1
     0.736956737     0.695673696     0.547142857       1
     0.737055737     0.705573706     0.547142857       1
     0.747054747     0.705474705     0.547142857       1
     0.747153747     0.715374715     0.547142857       1
     0.757152757     0.715275715     0.547142857       1
     0.757251757     0.725175725     0.547142857       1
     0.767250767     0.725076725     0.547142857       1
     0.767349767     0.734976735     0.547142857       1
     0.777348777     0.734877735     0.547142857       1
     0.777447777     0.744777745     0.547142857       1
     0.787446787     0.744678745     0.547142857       1
     0.787545788     0.754578755     0.547142857       1
     0.797544798     0.754479754     0.547142857       1
     0.797643798     0.764379764     0.547142857       1
     0.807642808     0.764280764     0.547142857       1
     0.807741808     0.774180774     0.547142857       1
     0.817740818     0.774081774     0.547142857       1
     0.817839818     0.783981784     0.547142857       1
     0.827838828     0.783882784     0.547142857       1
     0.827937828     0.793782794     0.547142857       1
     0.837936838     0.793683794     0.547142857       1
     0.838035838     0.803583804     0.547142857       1
     0.848034848     0.803484803     0.547142857       1
     0.848133848     0.813384813     0.547142857       1
     0.858132858     0.813285813     0.547142857       1
     0.858231858     0.823185823     0.547142857       1
     0.868230868     0.823086823     0.547142857       1
     0.868329868     0.832986833     0.547142857       1
     0.878328878     0.832887833     0.547142857       1
     0.878427878     0.842787843     0.547142857       1
     0.888426888     0.842688843     0.547142857       1
     0.888525889     0.852588853     0.547142857       1
     0.898524899     0.852489852     0.547142857       1
     0.898623899     0.862389862     0.547142857       1
     0.908622909     0.862290862     0.547142857       1
     0.908721909     0.872190872     0.547142857       1
     0.918720919     0.872091872     0.547142857       1
     0.918819919     0.881991882     0.547142857       1
     0.928818929     0.881892882     0.547142857       1
     0.928917929     0.891792892     0.547142857       1
     0.938916939     0.891693892     0.547142857       1
     0.939015939     0.901593902     0.547142857       1
     0.949014949     0.901494901     0.547142857       1
     0.949113949     0.911394911     0.547142857       1
     0.959112959     0.911295911     0.547142857       1
     0.959211959     0.921195921     0.547142857       1
     0.969210969     0.921096921     0.547142857       1
     0.969309969     0.930996931     0.547142857       1
     0.979308979     0.930897931     0.547142857       1
     0.979407979     0.940797941     0.547142857       1
     0.989406989     0.940698941     0.547142857       1
     0.989505990     0.950598951     0.547142857       1
     0.999505000     0.950499950     0.547142857       1
     0.999604000     0.960399960     0.547142857       1
     0.009603010     0.960300960     0.547142857       1
     0.009702010     0.970200970     0.547142857       1
     0.019701020     0.970101970     0.547142857       1
     0.019800020     0.980001980     0.547142857       1
     0.029799030     0.979902980     0.547142857       1
     0.029898030     0.989802990     0.547142857       1
     0.039897040     0.989703990     0.547142857       1
     0.039996040     0.999604000     0.547142857       1
     0.049995050     0.999505000     0.547142857       1
     0.050094050     0.009405009     0.547142857       1
     0.060093060     0.009306009     0.547142857       1
     0.060192060     0.019206019     0.547142857       1
     0.070191070     0.019107019     0.547142857       1
     0.070290070     0.029007029     0.547142857       1
     0.080289080     0.028908029     0.547142857       1
     0.080388080     0.038808039     0.547142857       1
     0.090387090     0.038709039     0.547142857       1
     0.090486090     0.048609049     0.547142857       1
     0.100485100     0.048510049     0.547142857       1
     0.100584101     0.058410058     0.547142857       1
     0.110583111     0.058311058     0.547142857       1
     0.110682111     0.068211068     0.547142857       1
     0.120681121     0.068112068     0.547142857       1
     0.120780121     0.078012078     0.547142857       1
     0.130779131     0.077913078     0.547142857       1
     0.130878131     0.087813088     0.547142857       1
     0.140877141     0.087714088     0.547142857       1
     0.140976141     0.097614098     0.547142857       1
     0.150975151     0.097515098     0.547142857       1
     0.151074151     0.107415107     0.547142857       1
     0.161073161     0.107316107     0.547142857       1
     0.161172161     0.117216117     0.547142857       1
     0.171171171     0.117117117     0.547142857       1
     0.171270171     0.127017127     0.547142857       1
     0.181269181     0.126918127     0.547142857       1
     0.181368181     0.136818137     0.547142857       1
     0.191367191     0.136719137     0.547142857       1
     0.191466191     0.146619147     0.547142857       1
     0.201465201     0.146520147     0.547142857       1
     0.201564202     0.156420156     0.547142857       1
     0.211563212     0.156321156     0.547142857       1
     0.211662212     0.166221166     0.547142857       1
     0.221661222     0.166122166     0.547142857       1
     0.221760222     0.176022176     0.547142857       1
     0.231759232     0.175923176     0.547142857       1
     0.231858232     0.185823186     0.547142857       1
     0.241857242     0.185724186     0.547142857       1
     0.241956242     0.195624196     0.547142857       1
     0.251955252     0.195525196     0.547142857       1
     0.252054252     0.205425205     0.547142857       1
     0.262053262     0.205326205     0.547142857       1
     0.262152262     0.215226215     0.547142857       1
     0.272151272     0.215127215     0.547142857       1
     0.272250272     0.225027225     0.547142857       1
     0.282249282     0.224928225     0.547142857       1
     0.282348282     0.234828235     0.547142857       1
     0.292347292     0.234729235     0.547142857       1
     0.292446292     0.244629245     0.547142857       1
     0.302445302     0.244530245     0.547142857       1
     0.302544303     0.254430254     0.547142857       1
     0.312543313     0.254331254     0.547142857       1
     0.312642313     0.264231264     0.547142857       1
     0.322641323     0.264132264     0.547142857       1
     0.322740323     0.274032274     0.547142857       1
     0.332739333     0.273933274     0.547142857       1
     0.332838333     0.283833284     0.547142857       1
     0.342837343     0.283734284     0.547142857       1
     0.342936343     0.293634294     0.547142857       1
     0.352935353     0.293535294     0.547142857       1
     0.353034353     0.303435303     0.547142857       1
     0.363033363     0.303336303     0.547142857       1
     0.363132363     0.313236313     0.547142857       1
     0.373131373     0.313137313     0.547142857       1
     0.373230373     0.323037323     0.547142857       1
     0.383229383     0.322938323     0.547142857       1
     0.383328383     0.332838333     0.547142857       1
     0.393327393     0.332739333     0.547142857       1
     0.393426393     0.342639343     0.547142857       1
     0.403425403     0.342540343     0.547142857       1
     0.403524404     0.352440352     0.547142857       1
     0.413523414     0.352341352     0.547142857       1
     0.413622414     0.362241362     0.547142857       1
     0.423621424     0.362142362     0.547142857       1
     0.423720424     0.372042372     0.547142857       1
     0.433719434     0.371943372     0.547142857       1
     0.433818434     0.381843382     0.547142857       1
     0.443817444     0.381744382     0.547142857       1
     0.443916444     0.391644392     0.547142857       1
     0.453915454     0.391545392     0.547142857       1
     0.454014454     0.401445401     0.547142857       1
     0.464013464     0.401346401     0.547142857       1
     0.464112464     0.411246411     0.547142857       1
     0.474111474     0.411147411     0.547142857       1
     0.474210474     0.421047421     0.547142857       1
     0.484209484     0.420948421     0.547142857       1
     0.484308484     0.430848431     0.547142857       1
     0.494307494     0.430749431     0.547142857       1
     0.494406494     0.440649441     0.547142857       1
     0.504405504     0.440550441     0.547142857       1
     0.504504505     0.450450450     0.547142857       1
     0.514503515     0.450351450     0.547142857       1
     0.514602515     0.460251460     0.547142857       1
     0.524601525     0.460152460     0.547142857       1
     0.524700525     0.470052470     0.547142857       1
     0.534699535     0.469953470     0.547142857       1
     0.534798535     0.479853480     0.547142857       1
     0.544797545     0.479754480     0.547142857       1
     0.544896545     0.489654490     0.547142857       1
     0.554895555     0.489555490     0.547142857       1
     0.554994555     0.499455499     0.547142857       1
     0.564993565     0.499356499     0.547142857       1
     0.565092565     0.509256509     0.547142857       1
     0.575091575     0.509157509     0.547142857       1
     0.575190575     0.519057519     0.547142857       1
     0.585189585     0.518958519     0.547142857       1
     0.585288585     0.528858529     0.547142857       1
     0.595287595     0.528759529     0.547142857       1
     0.595386595     0.538659539     0.547142857       1
     0.605385605     0.538560539     0.547142857       1
     0.605484605     0.548460548     0.547142857       1
     0.615483615     0.548361548     0.547142857       1
     0.615582616     0.558261558     0.547142857       1
     0.625581626     0.558162558     0.547142857       1
     0.625680626     0.568062568     0.547142857       1
     0.635679636     0.567963568     0.547142857       1
     0.635778636     0.577863578     0.547142857       1
     0.645777646     0.577764578     0.547142857       1
     0.645876646     0.587664588     0.547142857       1
     0.655875656     0.587565588     0.547142857       1
     0.655974656     0.597465597     0.547142857       1
     0.665973666     0.597366597     0.547142857       1
     0.666072666     0.607266607     0.547142857       1
     0.676071676     0.607167607     0.547142857       1
     0.676170676     0.617067617     0.547142857       1
     0.686169686     0.616968617     0.547142857       1
     0.686268686     0.626868627     0.547142857       1
     0.696267696     0.626769627     0.547142857       1
     0.696366696     0.636669637     0.547142857       1
     0.706365706     0.636570637     0.547142857       1
     0.706464706     0.646470646     0.547142857       1
     0.716463716     0.646371646     0.547142857       1
     0.716562717     0.656271656     0.547142857       1
     0.726561727     0.656172656     0.547142857       1
     0.726660727     0.666072666     0.547142857       1
     0.736659737     0.665973666     0.547142857       1
     0.736758737     0.675873676     0.547142857       1
     0.746757747     0.675774676     0.547142857       1
     0.746856747     0.685674686     0.547142857       1
     0.756855757     0.685575686     0.547142857       1
     0.756954757     0.695475695     0.547142857       1
     0.766953767     0.695376695     0.547142857       1
     0.767052767     0.705276705     0.547142857       1
     0.777051777     0.705177705     0.547142857       1
     0.777150777     0.715077715     0.547142857       1
     0.787149787     0.714978715     0.547142857       1
     0.787248787     0.724878725     0.547142857       1
     0.797247797     0.724779725     0.547142857       1
     0.797346797     0.734679735     0.547142857       1
     0.807345807     0.734580735     0.547142857       1
     0.807444807     0.744480744     0.547142857       1
     0.817443817     0.744381744     0.547142857       1
     0.817542818     0.754281754     0.547142857       1
     0.827541828     0.754182754     0.547142857       1
     0.827640828     0.764082764     0.547142857       1
     0.837639838     0.763983764     0.547142857       1
     0.837738838     0.773883774     0.547142857       1
     0.847737848     0.773784774     0.547142857       1
     0.847836848     0.783684784     0.547142857       1
     0.857835858     0.783585784     0.547142857       1
     0.857934858     0.793485793     0.547142857       1
     0.867933868     0.793386793     0.547142857       1
     0.868032868     0.803286803     0.547142857       1
     0.878031878     0.803187803     0.547142857       1
     0.878130878     0.813087813     0.547142857       1
     0.888129888     0.812988813     0.547142857       1
     0.888228888     0.822888823     0.547142857       1
     0.898227898     0.822789823     0.547142857       1
     0.898326898     0.832689833     0.547142857       1
     0.908325908     0.832590833     0.547142857       1
     0.908424908     0.842490842     0.547142857       1
     0.918423918     0.842391842     0.547142857       1
     0.918522919     0.852291852     0.547142857       1
     0.928521929     0.852192852     0.547142857       1
     0.928620929     0.862092862     0.547142857       1
     0.938619939     0.861993862     0.547142857       1
     0.938718939     0.871893872     0.547142857       1
     0.948717949     0.871794872     0.547142857       1
     0.948816949     0.881694882     0.547142857       1
     0.958815959     0.881595882     0.547142857       1
     0.958914959     0.891495891     0.547142857       1
     0.968913969     0.891396891     0.547142857       1
     0.969012969     0.901296901     0.547142857       1
     0.979011979     0.901197901     0.547142857       1
     0.979110979     0.911097911     0.547142857       1
     0.989109989     0.910998911     0.547142857       1
     0.989208989     0.920898921     0.547142857       1
     0.999207999     0.920799921     0.547142857       1
     0.999306999     0.930699931     0.547142857       1
     0.009306009     0.930600931     0.547142857       1
     0.009405009     0.940500941     0.547142857       1
     0.019404019     0.940401940     0.547142857       1
     0.019503020     0.950301950     0.547142857       1
     0.029502030     0.950202950     0.547142857       1
     0.029601030     0.960102960     0.547142857       1
     0.039600040     0.960003960     0.547142857       1
     0.039699040     0.969903970     0.547142857       1
     0.049698050     0.969804970     0.547142857       1
     0.049797050     0.979704980     0.547142857       1
     0.059796060     0.979605980     0.547142857       1
     0.059895060     0.989505990     0.547142857       1
     0.069894070     0.989406989     0.547142857       1
     0.069993070     0.999306999     0.547142857       1
     0.079992080     0.999207999     0.547142857       1
     0.080091080     0.009108009     0.547142857       1
     0.090090090     0.009009009     0.547142857       1
     0.090189090     0.018909019     0.547142857       1
     0.100188100     0.018810019     0.547142857       1
     0.100287100     0.028710029     0.547142857       1
     0.110286110     0.028611029     0.547142857       1
     0.110385110     0.038511039     0.547142857       1
     0.120384120     0.038412038     0.547142857       1
     0.120483120     0.048312048     0.547142857       1
     0.130482130     0.048213048     0.547142857       1
     0.130581131     0.058113058     0.547142857       1
     0.140580141     0.058014058     0.547142857       1
     0.140679141     0.067914068     0.547142857       1
     0.150678151     0.067815068     0.547142857       1
     0.150777151     0.077715078     0.547142857       1
     0.160776161     0.077616078     0.547142857       1
     0.160875161     0.087516088     0.547142857       1
     0.170874171     0.087417087     0.547142857       1
     0.170973171     0.097317097     0.547142857       1
     0.180972181     0.097218097     0.547142857       1
     0.181071181     0.107118107     0.547142857       1
     0.191070191     0.107019107     0.547142857       1
     0.191169191     0.116919117     0.547142857       1
     0.201168201     0.116820117     0.547142857       1
     0.201267201     0.126720127     0.547142857       1
     0.211266211     0.126621127     0.547142857       1
     0.211365211     0.136521137     0.547142857       1
     0.221364221     0.136422136     0.547142857       1
     0.221463221     0.146322146     0.547142857       1
     0.231462231     0.146223146     0.547142857       1
     0.231561232     0.156123156     0.547142857       1
     0.241560242     0.156024156     0.547142857       1
     0.241659242     0.165924166     0.547142857       1
     0.251658252     0.165825166     0.547142857       1
     0.251757252     0.175725176     0.547142857       1
     0.261756262     0.175626176     0.547142857       1
     0.261855262     0.185526186     0.547142857       1
     0.271854272     0.185427185     0.547142857       1
     0.271953272     0.195327195     0.547142857       1
     0.281952282     0.195228195     0.547142857       1
     0.282051282     0.205128205     0.547142857       1
     0.292050292     0.205029205     0.547142857       1
     0.292149292     0.214929215     0.547142857       1
     0.302148302     0.214830215     0.547142857       1
     0.302247302     0.224730225     0.547142857       1
     0.312246312     0.224631225     0.547142857       1
     0.312345312     0.234531235     0.547142857       1
     0.322344322     0.234432234     0.547142857       1
     0.322443322     0.244332244     0.547142857       1
     0.332442332     0.244233244     0.547142857       1
     0.332541333     0.254133254     0.547142857       1
     0.342540343     0.254034254     0.547142857       1
     0.342639343     0.263934264     0.547142857       1
     0.352638353     0.263835264     0.547142857       1
     0.352737353     0.273735274     0.547142857       1
     0.362736363     0.273636274     0.547142857       1
     0.362835363     0.283536284     0.547142857       1
     0.372834373     0.283437283     0.547142857       1
     0.372933373     0.293337293     0.547142857       1
     0.382932383     0.293238293     0.547142857       1
     0.383031383     0.303138303     0.547142857       1
     0.393030393     0.303039303     0.547142857       1
     0.393129393     0.312939313     0.547142857       1
     0.403128403     0.312840313     0.547142857       1
     0.403227403     0.322740323     0.547142857       1
     0.413226413     0.322641323     0.547142857       1
     0.413325413     0.332541333     0.547142857       1
     0.423324423     0.332442332     0.547142857       1
     0.423423423     0.342342342     0.547142857       1
     0.433422433     0.342243342     0.547142857       1
     0.433521434     0.352143352     0.547142857       1
     0.443520444     0.352044352     0.547142857       1
     0.443619444     0.361944362     0.547142857       1
     0.453618454     0.361845362     0.547142857       1
     0.453717454     0.371745372     0.547142857       1
     0.463716464     0.371646372     0.547142857       1
     0.463815464     0.381546382     0.547142857       1
     0.473814474     0.381447381     0.547142857       1
     0.473913474     0.391347391     0.547142857       1
     0.483912484     0.391248391     0.547142857       1
     0.484011484     0.401148401     0.547142857       1
     0.494010494     0.401049401     0.547142857       1
     0.494109494     0.410949411     0.547142857       1
     0.504108504     0.410850411     0.547142857       1
     0.504207504     0.420750421     0.547142857       1
     0.514206514     0.420651421     0.547142857       1
     0.514305514     0.430551431     0.547142857       1
     0.524304524     0.430452430     0.547142857       1
     0.524403524     0.440352440     0.547142857       1
     0.534402534     0.440253440     0.547142857       1
     0.534501535     0.450153450     0.547142857       1
     0.544500545     0.450054450     0.547142857       1
     0.544599545     0.459954460     0.547142857       1
     0.554598555     0.459855460     0.547142857       1
     0.554697555     0.469755470     0.547142857       1
     0.564696565     0.469656470     0.547142857       1
     0.564795565     0.479556480     0.547142857       1
     0.574794575     0.479457479     0.547142857       1
     0.574893575     0.489357489     0.547142857       1
     0.584892585     0.489258489     0.547142857       1
     0.584991585     0.499158499     0.547142857       1
     0.594990595     0.499059499     0.547142857       1
     0.595089595     0.508959509     0.547142857       1
     0.605088605     0.508860509     0.547142857       1
     0.605187605     0.518760519     0.547142857       1
     0.615186615     0.518661519     0.547142857       1
     0.615285615     0.528561529     0.547142857       1
     0.625284625     0.528462528     0.547142857       1
     0.625383625     0.538362538     0.547142857       1
     0.635382635     0.538263538     0.547142857       1
     0.635481635     0.548163548     0.547142857       1
     0.645480645     0.548064548     0.547142857       1
     0.645579646     0.557964558     0.547142857       1
     0.655578656     0.557865558     0.547142857       1
     0.655677656     0.567765568     0.547142857       1
     0.665676666     0.567666568     0.547142857       1
     0.665775666     0.577566578     0.547142857       1
     0.675774676     0.577467577     0.547142857       1
     0.675873676     0.587367587     0.547142857       1
     0.685872686     0.587268587     0.547142857       1
     0.685971686     0.597168597     0.547142857       1
     0.695970696     0.597069597     0.547142857       1
     0.696069696     0.606969607     0.547142857       1
     0.706068706     0.606870607     0.547142857       1
     0.706167706     0.616770617     0.547142857       1
     0.716166716     0.616671617     0.547142857       1
     0.716265716     0.626571627     0.547142857       1
     0.726264726     0.626472626     0.547142857       1
     0.726363726     0.636372636     0.547142857       1
     0.736362736     0.636273636     0.547142857       1
     0.736461736     0.646173646     0.547142857       1
     0.746460746     0.646074646     0.547142857       1
     0.746559747     0.655974656     0.547142857       1
     0.756558757     0.655875656     0.547142857       1
     0.756657757     0.665775666     0.547142857       1
     0.766656767     0.665676666     0.547142857       1
     0.766755767     0.675576676     0.547142857       1
     0.776754777     0.675477675     0.547142857       1
     0.776853777     0.685377685     0.547142857       1
     0.786852787     0.685278685     0.547142857       1
     0.786951787     0.695178695     0.547142857       1
     0.796950797     0.695079695     0.547142857       1
     0.797049797     0.704979705     0.547142857       1
     0.807048807     0.704880705     0.547142857       1
     0.807147807     0.714780715     0.547142857       1
     0.817146817     0.714681715     0.547142857       1
     0.817245817     0.724581725     0.547142857       1
     0.827244827     0.724482724     0.547142857       1
     0.827343827     0.734382734     0.547142857       1
     0.837342837     0.734283734     0.547142857       1
     0.837441837     0.744183744     0.547142857       1
     0.847440847     0.744084744     0.547142857       1
     0.847539848     0.753984754     0.547142857       1
     0.857538858     0.753885754     0.547142857       1
     0.857637858     0.763785764     0.547142857       1
     0.867636868     0.763686764     0.547142857       1
     0.867735868     0.773586774     0.547142857       1
     0.877734878     0.773487773     0.547142857       1
     0.877833878     0.783387783     0.547142857       1
     0.887832888     0.783288783     0.547142857       1
     0.887931888     0.793188793     0.547142857       1
     0.897930898     0.793089793     0.547142857       1
     0.898029898     0.802989803     0.547142857       1
     0.908028908     0.802890803     0.547142857       1
     0.908127908     0.812790813     0.547142857       1
     0.918126918     0.812691813     0.547142857       1
     0.918225918     0.822591823     0.547142857       1
     0.928224928     0.822492822     0.547142857       1
     0.928323928     0.832392832     0.547142857       1
     0.938322938     0.832293832     0.547142857       1
     0.938421938     0.842193842     0.547142857       1
     0.948420948     0.842094842     0.547142857       1
     0.948519949     0.851994852     0.547142857       1
     0.958518959     0.851895852     0.547142857       1
     0.958617959     0.861795862     0.547142857       1
     0.968616969     0.861696862     0.547142857       1
     0.968715969     0.871596872     0.547142857       1
     0.978714979     0.871497871     0.547142857       1
     0.978813979     0.881397881     0.547142857       1
     0.988812989     0.881298881     0.547142857       1
     0.988911989     0.891198891     0.547142857       1
     0.998910999     0.891099891     0.547142857       1
     0.999009999     0.900999901     0.547142857       1
     0.009009009     0.900900901     0.547142857       1
     0.009108009     0.910800911     0.547142857       1
     0.019107019     0.910701911     0.547142857       1
     0.019206019     0.920601921     0.547142857       1
     0.029205029     0.920502921     0.547142857       1
     0.029304029     0.930402930     0.547142857       1
     0.039303039     0.930303930     0.547142857       1
     0.039402039     0.940203940     0.547142857       1
     0.049401049     0.940104940     0.547142857       1
     0.049500050     0.950004950     0.547142857       1
     0.059499059     0.949905950     0.547142857       1
     0.059598060     0.959805960     0.547142857       1
     0.069597070     0.959706960     0.547142857       1
     0.069696070     0.969606970     0.547142857       1
     0.079695080     0.969507970     0.547142857       1
     0.079794080     0.979407979     0.547142857       1
     0.089793090     0.979308979     0.547142857       1
     0.089892090     0.989208989     0.547142857       1
     0.099891100     0.989109989     0.547142857       1
     0.099990100     0.999009999     0.547142857       1
     0.109989110     0.998910999     0.547142857       1
     0.110088110     0.008811009     0.547142857       1
     0.120087120     0.008712009     0.547142857       1
     0.120186120     0.018612019     0.547142857       1
     0.130185130     0.018513019     0.547142857       1
     0.130284130     0.028413028     0.547142857       1
     0.140283140     0.028314028     0.547142857       1
     0.140382140     0.038214038     0.547142857       1
     0.150381150     0.038115038     0.547142857       1
     0.150480150     0.048015048     0.547142857       1
     0.160479160     0.047916048     0.547142857       1
     0.160578161     0.057816058     0.547142857       1
     0.170577171     0.057717058     0.547142857       1
     0.170676171     0.067617068     0.547142857       1
     0.180675181     0.067518068     0.547142857       1
     0.180774181     0.077418077     0.547142857       1
     0.190773191     0.077319077     0.547142857       1
     0.190872191     0.087219087     0.547142857       1
     0.200871201     0.087120087     0.547142857       1
     0.200970201     0.097020097     0.547142857       1
     0.210969211     0.096921097     0.547142857       1
     0.211068211     0.106821107     0.547142857       1
     0.221067221     0.106722107     0.547142857       1
     0.221166221     0.116622117     0.547142857       1
     0.231165231     0.116523117     0.547142857       1
     0.231264231     0.126423126     0.547142857       1
     0.241263241     0.126324126     0.547142857       1
     0.241362241     0.136224136     0.547142857       1
     0.251361251     0.136125136     0.547142857       1
     0.251460251     0.146025146     0.547142857       1
     0.261459261     0.145926146     0.547142857       1
     0.261558262     0.155826156     0.547142857       1
     0.271557272     0.155727156     0.547142857       1
     0.271656272     0.165627166     0.547142857       1
     0.281655282     0.165528166     0.547142857       1
     0.281754282     0.175428175     0.547142857       1
     0.291753292     0.175329175     0.547142857       1
     0.291852292     0.185229185     0.547142857       1
     0.301851302     0.185130185     0.547142857       1
     0.301950302     0.195030195     0.547142857       1
     0.311949312     0.194931195     0.547142857       1
     0.312048312     0.204831205     0.547142857       1
     0.322047322     0.204732205     0.547142857       1
     0.322146322     0.214632215     0.547142857       1
     0.332145332     0.214533215     0.547142857       1
     0.332244332     0.224433224     0.547142857       1
     0.342243342     0.224334224     0.547142857       1
     0.342342342     0.234234234     0.547142857       1
     0.352341352     0.234135234     0.547142857       1
     0.352440352     0.244035244     0.547142857       1
     0.362439362     0.243936244     0.547142857       1
     0.362538363     0.253836254     0.547142857       1
     0.372537373     0.253737254     0.547142857       1
     0.372636373     0.263637264     0.547142857       1
     0.382635383     0.263538264     0.547142857       1
     0.382734383     0.273438273     0.547142857       1
     0.392733393     0.273339273     0.547142857       1
     0.392832393     0.283239283     0.547142857       1
     0.402831403     0.283140283     0.547142857       1
     0.402930403     0.293040293     0.547142857       1
     0.412929413     0.292941293     0.547142857       1
     0.413028413     0.302841303     0.547142857       1
     0.423027423     0.302742303     0.547142857       1
     0.423126423     0.312642313     0.547142857       1
     0.433125433     0.312543313     0.547142857       1
     0.433224433     0.322443322     0.547142857       1
     0.443223443     0.322344322     0.547142857       1
     0.443322443     0.332244332     0.547142857       1
     0.453321453     0.332145332     0.547142857       1
     0.453420453     0.342045342     0.547142857       1
     0.463419463     0.341946342     0.547142857       1
     0.463518464     0.351846352     0.547142857       1
     0.473517474     0.351747352     0.547142857       1
     0.473616474     0.361647362     0.547142857       1
     0.483615484     0.361548362     0.547142857       1
     0.483714484     0.371448371     0.547142857       1
     0.493713494     0.371349371     0.547142857       1
     0.493812494     0.381249381     0.547142857       1
     0.503811504     0.381150381     0.547142857       1
     0.503910504     0.391050391     0.547142857       1
     0.513909514     0.390951391     0.547142857       1
     0.514008514     0.400851401     0.547142857       1
     0.524007524     0.400752401     0.547142857       1
     0.524106524     0.410652411     0.547142857       1
     0.534105534     0.410553411     0.547142857       1
     0.534204534     0.420453420     0.547142857       1
     0.544203544     0.420354420     0.547142857       1
     0.544302544     0.430254430     0.547142857       1
     0.554301554     0.430155430     0.547142857       1
     0.554400554     0.440055440     0.547142857       1
     0.564399564     0.439956440     0.547142857       1
     0.564498564     0.449856450     0.547142857       1
     0.574497574     0.449757450     0.547142857       1
     0.574596575     0.459657460     0.547142857       1
     0.584595585     0.459558460     0.547142857       1
     0.584694585     0.469458469     0.547142857       1
     0.594693595     0.469359469     0.547142857       1
     0.594792595     0.479259479     0.547142857       1
     0.604791605     0.479160479     0.547142857       1
     0.604890605     0.489060489     0.547142857       1
     0.614889615     0.488961489     0.547142857       1
     0.614988615     0.498861499     0.547142857       1
     0.624987625     0.498762499     0.547142857       1
     0.625086625     0.508662509     0.547142857       1
     0.635085635     0.508563509     0.547142857       1
     0.635184635     0.518463518     0.547142857       1
     0.645183645     0.518364518     0.547142857       1
     0.645282645     0.528264528     0.547142857       1
     0.655281655     0.528165528     0.547142857       1
     0.655380655     0.538065538     0.547142857       1
     0.665379665     0.537966538     0.547142857       1
     0.665478665     0.547866548     0.547142857       1
     0.675477675     0.547767548     0.547142857       1
     0.675576676     0.557667558     0.547142857       1
     0.685575686     0.557568558     0.547142857       1
     0.685674686     0.567468567     0.547142857       1
     0.695673696     0.567369567     0.547142857       1
     0.695772696     0.577269577     0.547142857       1
     0.705771706     0.577170577     0.547142857       1
     0.705870706     0.587070587     0.547142857       1
     0.715869716     0.586971587     0.547142857       1
     0.715968716     0.596871597     0.547142857       1
     0.725967726     0.596772597     0.547142857       1
     0.726066726     0.606672607     0.547142857       1
     0.736065736     0.606573607     0.547142857       1
     0.736164736     0.616473616     0.547142857       1
     0.746163746     0.616374616     0.547142857       1
     0.746262746     0.626274626     0.547142857       1
     0.756261756     0.626175626     0.547142857       1
     0.756360756     0.636075636     0.547142857       1
     0.766359766     0.635976636     0.547142857       1
     0.766458766     0.645876646     0.547142857       1
     0.776457776     0.645777646     0.547142857       1
     0.776556777     0.655677656     0.547142857       1
     0.786555787     0.655578656     0.547142857       1
     0.786654787     0.665478665     0.547142857       1
     0.796653797     0.665379665     0.547142857       1
     0.796752797     0.675279675     0.547142857       1
     0.806751807     0.675180675     0.547142857       1
     0.806850807     0.685080685     0.547142857       1
     0.816849817     0.684981685     0.547142857       1
     0.816948817     0.694881695     0.547142857       1
     0.826947827     0.694782695     0.547142857       1
     0.827046827     0.704682705     0.547142857       1
     0.837045837     0.704583705     0.547142857       1
     0.837144837     0.714483714     0.547142857       1
     0.847143847     0.714384714     0.547142857       1
     0.847242847     0.724284724     0.547142857       1
     0.857241857     0.724185724     0.547142857       1
     0.857340857     0.734085734     0.547142857       1
     0.867339867     0.733986734     0.547142857       1
     0.867438867     0.743886744     0.547142857       1
     0.877437877     0.743787744     0.547142857       1
     0.877536878     0.753687754     0.547142857       1
     0.887535888     0.753588754     0.547142857       1
     0.887634888     0.763488763     0.547142857       1
     0.897633898     0.763389763     0.547142857       1
     0.897732898     0.773289773     0.547142857       1
     0.907731908     0.773190773     0.547142857       1
     0.907830908     0.783090783     0.547142857       1
     0.917829918     0.782991783     0.547142857       1
     0.917928918     0.792891793     0.547142857       1
     0.927927928     0.792792793     0.547142857       1
     0.928026928     0.802692803     0.547142857       1
     0.938025938     0.802593803     0.547142857       1
     0.938124938     0.812493812     0.547142857       1
     0.948123948     0.812394812     0.547142857       1
     0.948222948     0.822294822     0.547142857       1
     0.958221958     0.822195822     0.547142857       1
     0.958320958     0.832095832     0.547142857       1
     0.968319968     0.831996832     0.547142857       1
     0.968418968     0.841896842     0.547142857       1
     0.978417978     0.841797842     0.547142857       1
     0.978516979     0.851697852     0.547142857       1
     0.988515989     0.851598852     0.547142857       1
     0.988614989     0.861498861     0.547142857       1
     0.998613999     0.861399861     0.547142857       1
     0.998712999     0.871299871     0.547142857       1
     0.008712009     0.871200871     0.547142857       1
     0.008811009     0.881100881     0.547142857       1
     0.018810019     0.881001881     0.547142857       1
     0.018909019     0.890901891     0.547142857       1
     0.028908029     0.890802891     0.547142857       1
     0.029007029     0.900702901     0.547142857       1
     0.039006039     0.900603901     0.547142857       1
     0.039105039     0.910503911     0.547142857       1
     0.049104049     0.910404910     0.547142857       1
     0.049203049     0.920304920     0.547142857       1
     0.059202059     0.920205920     0.547142857       1
     0.059301059     0.930105930     0.547142857       1
     0.069300069     0.930006930     0.547142857       1
     0.069399069     0.939906940     0.547142857       1
     0.079398079     0.939807940     0.547142857       1
     0.079497079     0.949707950     0.547142857       1
     0.089496089     0.949608950     0.547142857       1
     0.089595090     0.959508960     0.547142857       1
     0.099594100     0.959409959     0.547142857       1
     0.099693100     0.969309969     0.547142857       1
     0.109692110     0.969210969     0.547142857       1
     0.109791110     0.979110979     0.547142857       1
     0.119790120     0.979011979     0.547142857       1
     0.119889120     0.988911989     0.547142857       1
     0.129888130     0.988812989     0.547142857       1
     0.129987130     0.998712999     0.547142857       1
     0.139986140     0.998613999     0.547142857       1
     0.140085140     0.008514009     0.547142857       1
     0.150084150     0.008415008     0.547142857       1
     0.150183150     0.018315018     0.547142857       1
     0.160182160     0.018216018     0.547142857       1
     0.160281160     0.028116028     0.547142857       1
     0.170280170     0.028017028     0.547142857       1
     0.170379170     0.037917038     0.547142857       1
     0.180378180     0.037818038     0.547142857       1
     0.180477180     0.047718048     0.547142857       1
     0.190476190     0.047619048     0.547142857       1
     0.190575191     0.057519058     0.547142857       1
     0.200574201     0.057420057     0.547142857       1
     0.200673201     0.067320067     0.547142857       1
     0.210672211     0.067221067     0.547142857       1
     0.210771211     0.077121077     0.547142857       1
     0.220770221     0.077022077     0.547142857       1
     0.220869221     0.086922087     0.547142857       1
     0.230868231     0.086823087     0.547142857       1
     0.230967231     0.096723097     0.547142857       1
     0.240966241     0.096624097     0.547142857       1
     0.241065241     0.106524107     0.547142857       1
     0.251064251     0.106425106     0.547142857       1
     0.251163251     0.116325116     0.547142857       1
     0.261162261     0.116226116     0.547142857       1
     0.261261261     0.126126126     0.547142857       1
     0.271260271     0.126027126     0.547142857       1
     0.271359271     0.135927136     0.547142857       1
     0.281358281     0.135828136     0.547142857       1
     0.281457281     0.145728146     0.547142857       1
     0.291456291     0.145629146     0.547142857       1
     0.291555292     0.155529156     0.547142857       1
     0.301554302     0.155430155     0.547142857       1
     0.301653302     0.165330165     0.547142857       1
     0.311652312     0.165231165     0.547142857       1
     0.311751312     0.175131175     0.547142857       1
     0.321750322     0.175032175     0.547142857       1
     0.321849322     0.184932185     0.547142857       1
     0.331848332     0.184833185     0.547142857       1
     0.331947332     0.194733195     0.547142857       1
     0.341946342     0.194634195     0.547142857       1
     0.342045342     0.204534205     0.547142857       1
     0.352044352     0.204435204     0.547142857       1
     0.352143352     0.214335214     0.547142857       1
     0.362142362     0.214236214     0.547142857       1
     0.362241362     0.224136224     0.547142857       1
     0.372240372     0.224037224     0.547142857       1
     0.372339372     0.233937234     0.547142857       1
     0.382338382     0.233838234     0.547142857       1
     0.382437382     0.243738244     0.547142857       1
     0.392436392     0.243639244     0.547142857       1
     0.392535393     0.253539254     0.547142857       1
     0.402534403     0.253440253     0.547142857       1
     0.402633403     0.263340263     0.547142857       1
     0.412632413     0.263241263     0.547142857       1
     0.412731413     0.273141273     0.547142857       1
     0.422730423     0.273042273     0.547142857       1
     0.422829423     0.282942283     0.547142857       1
     0.432828433     0.282843283     0.547142857       1
     0.432927433     0.292743293     0.547142857       1
     0.442926443     0.292644293     0.547142857       1
     0.443025443     0.302544303     0.547142857       1
     0.453024453     0.302445302     0.547142857       1
     0.453123453     0.312345312     0.547142857       1
     0.463122463     0.312246312     0.547142857       1
     0.463221463     0.322146322     0.547142857       1
     0.473220473     0.322047322     0.547142857       1
     0.473319473     0.331947332     0.547142857       1
     0.483318483     0.331848332     0.547142857       1
     0.483417483     0.341748342     0.547142857       1
     0.493416493     0.341649342     0.547142857       1
     0.493515494     0.351549352     0.547142857       1
     0.503514504     0.351450351     0.547142857       1
     0.503613504     0.361350361     0.547142857       1
     0.513612514     0.361251361     0.547142857       1
     0.513711514     0.371151371     0.547142857       1
     0.523710524     0.371052371     0.547142857       1
     0.523809524     0.380952381     0.547142857       1
     0.533808534     0.380853381     0.547142857       1
     0.533907534     0.390753391     0.547142857       1
     0.543906544     0.390654391     0.547142857       1
     0.544005544     0.400554401     0.547142857       1
     0.554004554     0.400455400     0.547142857       1
     0.554103554     0.410355410     0.547142857       1
     0.564102564     0.410256410     0.547142857       1
     0.564201564     0.420156420     0.547142857       1
     0.574200574     0.420057420     0.547142857       1
     0.574299574     0.429957430     0.547142857       1
     0.584298584     0.429858430     0.547142857       1
     0.584397584     0.439758440     0.547142857       1
     0.594396594     0.439659440     0.547142857       1
     0.594495594     0.449559450     0.547142857       1
     0.604494604     0.449460449     0.547142857       1
     0.604593605     0.459360459     0.547142857       1
     0.614592615     0.459261459     0.547142857       1
     0.614691615     0.469161469     0.547142857       1
     0.624690625     0.469062469     0.547142857       1
     0.624789625     0.478962479     0.547142857       1
     0.634788635     0.478863479     0.547142857       1
     0.634887635     0.488763489     0.547142857       1
     0.644886645     0.488664489     0.547142857       1
     0.644985645     0.498564499     0.547142857       1
     0.654984655     0.498465498     0.547142857       1
     0.655083655     0.508365508     0.547142857       1
     0.665082665     0.508266508     0.547142857       1
     0.665181665     0.518166518     0.547142857       1
     0.675180675     0.518067518     0.547142857       1
     0.675279675     0.527967528     0.547142857       1
     0.685278685     0.527868528     0.547142857       1
     0.685377685     0.537768538     0.547142857       1
     0.695376695     0.537669538     0.547142857       1
     0.695475695     0.547569548     0.547142857       1
     0.705474705     0.547470547     0.547142857       1
     0.705573706     0.557370557     0.547142857       1
     0.715572716     0.557271557     0.547142857       1
     0.715671716     0.567171567     0.547142857       1
     0.725670726     0.567072567     0.547142857       1
     0.725769726     0.576972577     0.547142857       1
     0.735768736     0.576873577     0.547142857       1
     0.735867736     0.586773587     0.547142857       1
     0.745866746     0.586674587     0.547142857       1
     0.745965746     0.596574597     0.547142857       1
     0.755964756     0.596475596     0.547142857       1
     0.756063756     0.606375606     0.547142857       1
     0.766062766     0.606276606     0.547142857       1
     0.766161766     0.616176616     0.547142857       1
     0.776160776     0.616077616     0.547142857       1
     0.776259776     0.625977626     0.547142857       1
     0.786258786     0.625878626     0.547142857       1
     0.786357786     0.635778636     0.547142857       1
     0.796356796     0.635679636     0.547142857       1
     0.796455796     0.645579646     0.547142857       1
     0.806454806     0.645480645     0.547142857       1
     0.806553807     0.655380655     0.547142857       1
     0.816552817     0.655281655     0.547142857       1
     0.816651817     0.665181665     0.547142857       1
     0.826650827     0.665082665     0.547142857       1
     0.826749827     0.674982675     0.547142857       1
     0.836748837     0.674883675     0.547142857       1
     0.836847837     0.684783685     0.547142857       1
     0.846846847     0.684684685     0.547142857       1
     0.846945847     0.694584695     0.547142857       1
     0.856944857     0.694485694     0.547142857       1
     0.857043857     0.704385704     0.547142857       1
     0.867042867     0.704286704     0.547142857       1
     0.867141867     0.714186714     0.547142857       1
     0.877140877     0.714087714     0.547142857       1
     0.877239877     0.723987724     0.547142857       1
     0.887238887     0.723888724     0.547142857       1
     0.887337887     0.733788734     0.547142857       1
     0.897336897     0.733689734     0.547142857       1
     0.897435897     0.743589744     0.547142857       1
     0.907434907     0.743490743     0.547142857       1
     0.907533908     0.753390753     0.547142857       1
     0.917532918     0.753291753     0.547142857       1
     0.917631918     0.763191763     0.547142857       1
     0.927630928     0.763092763     0.547142857       1
     0.927729928     0.772992773     0.547142857       1
     0.937728938     0.772893773     0.547142857       1
     0.937827938     0.782793783     0.547142857       1
     0.947826948     0.782694783     0.547142857       1
     0.947925948     0.792594793     0.547142857       1
     0.957924958     0.792495792     0.547142857       1
     0.958023958     0.802395802     0.547142857       1
     0.968022968     0.802296802     0.547142857       1
     0.968121968     0.812196812     0.547142857       1
     0.978120978     0.812097812     0.547142857       1
     0.978219978     0.821997822     0.547142857       1
     0.988218988     0.821898822     0.547142857       1
     0.988317988     0.831798832     0.547142857       1
     0.998316998     0.831699832     0.547142857       1
     0.998415998     0.841599842     0.547142857       1
     0.008415008     0.841500842     0.547142857       1
     0.008514009     0.851400851     0.547142857       1
     0.018513019     0.851301851     0.547142857       1
     0.018612019     0.861201861     0.547142857       1
     0.028611029     0.861102861     0.547142857       1
     0.028710029     0.871002871     0.547142857       1
     0.038709039     0.870903871     0.547142857       1
     0.038808039     0.880803881     0.547142857       1
     0.048807049     0.880704881     0.547142857       1
     0.048906049     0.890604891     0.547142857       1
     0.058905059     0.890505891     0.547142857       1
     0.059004059     0.900405900     0.547142857       1
     0.069003069     0.900306900     0.547142857       1
     0.069102069     0.910206910     0.547142857       1
     0.079101079     0.910107910     0.547142857       1
     0.079200079     0.920007920     0.547142857       1
     0.089199089     0.919908920     0.547142857       1
     0.089298089     0.929808930     0.547142857       1
     0.099297099     0.929709930     0.547142857       1
     0.099396099     0.939609940     0.547142857       1
     0.109395109     0.939510940     0.547142857       1
     0.109494109     0.949410949     0.547142857       1
     0.119493119     0.949311949     0.547142857       1
     0.119592120     0.959211959     0.547142857       1
     0.129591130     0.959112959     0.547142857       1
     0.129690130     0.969012969     0.547142857       1
     0.139689140     0.968913969     0.547142857       1
     0.139788140     0.978813979     0.547142857       1
     0.149787150     0.978714979     0.547142857       1
     0.149886150     0.988614989     0.547142857       1
     0.159885160     0.988515989     0.547142857       1
     0.159984160     0.998415998     0.547142857       1
     0.169983170     0.998316998     0.547142857       1
     0.170082170     0.008217008     0.547142857       1
     0.180081180     0.008118008     0.547142857       1
     0.180180180     0.018018018     0.547142857       1
     0.190179190     0.017919018     0.547142857       1
     0.190278190     0.027819028     0.547142857       1
     0.200277200     0.027720028     0.547142857       1
     0.200376200     0.037620038     0.547142857       1
     0.210375210     0.037521038     0.547142857       1
     0.210474210     0.047421047     0.547142857       1
     0.220473220     0.047322047     0.547142857       1
     0.220572221     0.057222057     0.547142857       1
     0.230571231     0.057123057     0.547142857       1
     0.230670231     0.067023067     0.547142857       1
     0.240669241     0.066924067     0.547142857       1
     0.240768241     0.076824077     0.547142857       1
     0.250767251     0.076725077     0.547142857       1
     0.250866251     0.086625087     0.547142857       1
     0.260865261     0.086526087     0.547142857       1
     0.260964261     0.096426096     0.547142857       1
     0.270963271     0.096327096     0.547142857       1
     0.271062271     0.106227106     0.547142857       1
     0.281061281     0.106128106     0.547142857       1
     0.281160281     0.116028116     0.547142857       1
     0.291159291     0.115929116     0.547142857       1
     0.291258291     0.125829126     0.547142857       1
     0.301257301     0.125730126     0.547142857       1
     0.301356301     0.135630136     0.547142857       1
     0.311355311     0.135531136     0.547142857       1
     0.311454311     0.145431145     0.547142857       1
     0.321453321     0.145332145     0.547142857       1
     0.321552322     0.155232155     0.547142857       1
     0.331551332     0.155133155     0.547142857       1
     0.331650332     0.165033165     0.547142857       1
     0.341649342     0.164934165     0.547142857       1
     0.341748342     0.174834175     0.547142857       1
     0.351747352     0.174735175     0.547142857       1
     0.351846352     0.184635185     0.547142857       1
     0.361845362     0.184536185     0.547142857       1
     0.361944362     0.194436194     0.547142857       1
     0.371943372     0.194337194     0.547142857       1
     0.372042372     0.204237204     0.547142857       1
     0.382041382     0.204138204     0.547142857       1
     0.382140382     0.214038214     0.547142857       1
     0.392139392     0.213939214     0.547142857       1
     0.392238392     0.223839224     0.547142857       1
     0.402237402     0.223740224     0.547142857       1
     0.402336402     0.233640234     0.547142857       1
     0.412335412     0.233541234     0.547142857       1
     0.412434412     0.243441243     0.547142857       1
     0.422433422     0.243342243     0.547142857       1
     0.422532423     0.253242253     0.547142857       1
     0.432531433     0.253143253     0.547142857       1
     0.432630433     0.263043263     0.547142857       1
     0.442629443     0.262944263     0.547142857       1
     0.442728443     0.272844273     0.547142857       1
     0.452727453     0.272745273     0.547142857       1
     0.452826453     0.282645283     0.547142857       1
     0.462825463     0.282546283     0.547142857       1
     0.462924463     0.292446292     0.547142857       1
     0.472923473     0.292347292     0.547142857       1
     0.473022473     0.302247302     0.547142857       1
     0.483021483     0.302148302     0.547142857       1
     0.483120483     0.312048312     0.547142857       1
     0.493119493     0.311949312     0.547142857       1
     0.493218493     0.321849322     0.547142857       1
     0.503217503     0.321750322     0.547142857       1
     0.503316503     0.331650332     0.547142857       1
     0.513315513     0.331551332     0.547142857       1
     0.513414513     0.341451341     0.547142857       1
     0.523413523     0.341352341     0.547142857       1
     0.523512524     0.351252351     0.547142857       1
     0.533511534     0.351153351     0.547142857       1
     0.533610534     0.361053361     0.547142857       1
     0.543609544     0.360954361     0.547142857       1
     0.543708544     0.370854371     0.547142857       1
     0.553707554     0.370755371     0.547142857       1
     0.553806554     0.380655381     0.547142857       1
     0.563805564     0.380556381     0.547142857       1
     0.563904564     0.390456390     0.547142857       1
     0.573903574     0.390357390     0.547142857       1
     0.574002574     0.400257400     0.547142857       1
     0.584001584     0.400158400     0.547142857       1
     0.584100584     0.410058410     0.547142857       1
     0.594099594     0.409959410     0.547142857       1
     0.594198594     0.419859420     0.547142857       1
     0.604197604     0.419760420     0.547142857       1
     0.604296604     0.429660430     0.547142857       1
     0.614295614     0.429561430     0.547142857       1
     0.614394614     0.439461439     0.547142857       1
     0.624393624     0.439362439     0.547142857       1
     0.624492624     0.449262449     0.547142857       1
     0.634491634     0.449163449     0.547142857       1
     0.634590635     0.459063459     0.547142857       1
     0.644589645     0.458964459     0.547142857       1
     0.644688645     0.468864469     0.547142857       1
     0.654687655     0.468765469     0.547142857       1
     0.654786655     0.478665479     0.547142857       1
     0.664785665     0.478566479     0.547142857       1
     0.664884665     0.488466488     0.547142857       1
     0.674883675     0.488367488     0.547142857       1
     0.674982675     0.498267498     0.547142857       1
     0.684981685     0.498168498     0.547142857       1
     0.685080685     0.508068508     0.547142857       1
     0.695079695     0.507969508     0.547142857       1
     0.695178695     0.517869518     0.547142857       1
     0.705177705     0.517770518     0.547142857       1
     0.705276705     0.527670528     0.547142857       1
     0.715275715     0.527571528     0.547142857       1
     0.715374715     0.537471537     0.547142857       1
     0.725373725     0.537372537     0.547142857       1
     0.725472725     0.547272547     0.547142857       1
     0.735471735     0.547173547     0.547142857       1
     0.735570736     0.557073557     0.547142857       1
     0.745569746     0.556974557     0.547142857       1
     0.745668746     0.566874567     0.547142857       1
     0.755667756     0.566775567     0.547142857       1
     0.755766756     0.576675577     0.547142857       1
     0.765765766     0.576576577     0.547142857       1
     0.765864766     0.586476586     0.547142857       1
     0.775863776     0.586377586     0.547142857       1
     0.775962776     0.596277596     0.547142857       1
     0.785961786     0.596178596     0.547142857       1
     0.786060786     0.606078606     0.547142857       1
     0.796059796     0.605979606     0.547142857       1
     0.796158796     0.615879616     0.547142857       1
     0.806157806     0.615780616     0.547142857       1
     0.806256806     0.625680626     0.547142857       1
     0.816255816     0.625581626     0.547142857       1
     0.816354816     0.635481635     0.547142857       1
     0.826353826     0.635382635     0.547142857       1
     0.826452826     0.645282645     0.547142857       1
     0.836451836     0.645183645     0.547142857       1
     0.836550837     0.655083655     0.547142857       1
     0.846549847     0.654984655     0.547142857       1
     0.846648847     0.664884665     0.547142857       1
     0.856647857     0.664785665     0.547142857       1
     0.856746857     0.674685675     0.547142857       1
     0.866745867     0.674586675     0.547142857       1
     0.866844867     0.684486684     0.547142857       1
     0.876843877     0.684387684     0.547142857       1
     0.876942877     0.694287694     0.547142857       1
     0.886941887     0.694188694     0.547142857       1
     0.887040887     0.704088704     0.547142857       1
     0.897039897     0.703989704     0.547142857       1
     0.897138897     0.713889714     0.547142857       1
     0.907137907     0.713790714     0.547142857       1
     0.907236907     0.723690724     0.547142857       1
     0.917235917     0.723591724     0.547142857       1
     0.917334917     0.733491733     0.547142857       1
     0.927333927     0.733392733     0.547142857       1
     0.927432927     0.743292743     0.547142857       1
     0.937431937     0.743193743     0.547142857       1
     0.937530938     0.753093753     0.547142857       1
     0.947529948     0.752994753     0.547142857       1
     0.947628948     0.762894763     0.547142857       1
     0.957627958     0.762795763     0.547142857       1
     0.957726958     0.772695773     0.547142857       1
     0.967725968     0.772596773     0.547142857       1
     0.967824968     0.782496782     0.547142857       1
     0.977823978     0.782397782     0.547142857       1
     0.977922978     0.792297792     0.547142857       1
     0.987921988     0.792198792     0.547142857       1
     0.988020988     0.802098802     0.547142857       1
     0.998019998     0.801999802     0.547142857       1
     0.998118998     0.811899812     0.547142857       1
     0.008118008     0.811800812     0.547142857       1
     0.008217008     0.821700822     0.547142857       1
     0.018216018     0.821601822     0.547142857       1
     0.018315018     0.831501832     0.547142857       1
     0.028314028     0.831402831     0.547142857       1
     0.028413028     0.841302841     0.547142857       1
     0.038412038     0.841203841     0.547142857       1
     0.038511039     0.851103851     0.547142857       1
     0.048510049     0.851004851     0.547142857       1
     0.048609049     0.860904861     0.547142857       1
     0.058608059     0.860805861     0.547142857       1
     0.058707059     0.870705871     0.547142857       1
     0.068706069     0.870606871     0.547142857       1
     0.068805069     0.880506881     0.547142857       1
     0.078804079     0.880407880     0.547142857       1
     0.078903079     0.890307890     0.547142857       1
     0.088902089     0.890208890     0.547142857       1
     0.089001089     0.900108900     0.547142857       1
     0.099000099     0.900009900     0.547142857       1
     0.099099099     0.909909910     0.547142857       1
     0.109098109     0.909810910     0.547142857       1
     0.109197109     0.919710920     0.547142857       1
     0.119196119     0.919611920     0.547142857       1
     0.119295119     0.929511930     0.547142857       1
     0.129294129     0.929412929     0.547142857       1
     0.129393129     0.939312939     0.547142857       1
     0.139392139     0.939213939     0.547142857       1
     0.139491139     0.949113949     0.547142857       1
     0.149490149     0.949014949     0.547142857       1
     0.149589150     0.958914959     0.547142857       1
     0.159588160     0.958815959     0.547142857       1
     0.159687160     0.968715969     0.547142857       1
     0.169686170     0.968616969     0.547142857       1
     0.169785170     0.978516979     0.547142857       1
     0.179784180     0.978417978     0.547142857       1
     0.179883180     0.988317988     0.547142857       1
     0.189882190     0.988218988     0.547142857       1
     0.189981190     0.998118998     0.547142857       1
     0.199980200     0.998019998     0.547142857       1
     0.200079200     0.007920008     0.547142857       1
     0.210078210     0.007821008     0.547142857       1
     0.210177210     0.017721018     0.547142857       1
     0.220176220     0.017622018     0.547142857       1
     0.220275220     0.027522028     0.547142857       1
     0.230274230     0.027423027     0.547142857       1
     0.230373230     0.037323037     0.547142857       1
     0.240372240     0.037224037     0.547142857       1
     0.240471240     0.047124047     0.547142857       1
     0.250470250     0.047025047     0.547142857       1
     0.250569251     0.056925057     0.547142857       1
     0.260568261     0.056826057     0.547142857       1
     0.260667261     0.066726067     0.547142857       1
     0.270666271     0.066627067     0.547142857       1
     0.270765271     0.076527077     0.547142857       1
     0.280764281     0.076428076     0.547142857       1
     0.280863281     0.086328086     0.547142857       1
     0.290862291     0.086229086     0.547142857       1
     0.290961291     0.096129096     0.547142857       1
     0.300960301     0.096030096     0.547142857       1
     0.301059301     0.105930106     0.547142857       1
     0.311058311     0.105831106     0.547142857       1
     0.311157311     0.115731116     0.547142857       1
     0.321156321     0.115632116     0.547142857       1
     0.321255321     0.125532126     0.547142857       1
     0.331254331     0.125433125     0.547142857       1
     0.331353331     0.135333135     0.547142857       1
     0.341352341     0.135234135     0.547142857       1
     0.341451341     0.145134145     0.547142857       1
     0.351450351     0.145035145     0.547142857       1
     0.351549352     0.154935155     0.547142857       1
     0.361548362     0.154836155     0.547142857       1
     0.361647362     0.164736165     0.547142857       1
     0.371646372     0.164637165     0.547142857       1
     0.371745372     0.174537175     0.547142857       1
     0.381744382     0.174438174     0.547142857       1
     0.381843382     0.184338184     0.547142857       1
     0.391842392     0.184239184     0.547142857       1
     0.391941392     0.194139194     0.547142857       1
     0.401940402     0.194040194     0.547142857       1
     0.402039402     0.203940204     0.547142857       1
     0.412038412     0.203841204     0.547142857       1
     0.412137412     0.213741214     0.547142857       1
     0.422136422     0.213642214     0.547142857       1
     0.422235422     0.223542224     0.547142857       1
     0.432234432     0.223443223     0.547142857       1
     0.432333432     0.233343233     0.547142857       1
     0.442332442     0.233244233     0.547142857       1
     0.442431442     0.243144243     0.547142857       1
     0.452430452     0.243045243     0.547142857       1
     0.452529453     0.252945253     0.547142857       1
     0.462528463     0.252846253     0.547142857       1
     0.462627463     0.262746263     0.547142857       1
     0.472626473     0.262647263     0.547142857       1
     0.472725473     0.272547273     0.547142857       1
     0.482724483     0.272448272     0.547142857       1
     0.482823483     0.282348282     0.547142857       1
     0.492822493     0.282249282     0.547142857       1
     0.492921493     0.292149292     0.547142857       1
     0.502920503     0.292050292     0.547142857       1
     0.503019503     0.301950302     0.547142857       1
     0.513018513     0.301851302     0.547142857       1
     0.513117513     0.311751312     0.547142857       1
     0.523116523     0.311652312     0.547142857       1
     0.523215523     0.321552322     0.547142857       1
     0.533214533     0.321453321     0.547142857       1
     0.533313533     0.331353331     0.547142857       1
     0.543312543     0.331254331     0.547142857       1
     0.543411543     0.341154341     0.547142857       1
     0.553410553     0.341055341     0.547142857       1
     0.553509554     0.350955351     0.547142857       1
     0.563508564     0.350856351     0.547142857       1
     0.563607564     0.360756361     0.547142857       1
     0.573606574     0.360657361     0.547142857       1
     0.573705574     0.370557371     0.547142857       1
     0.583704584     0.370458370     0.547142857       1
     0.583803584     0.380358380     0.547142857       1
     0.593802594     0.380259380     0.547142857       1
     0.593901594     0.390159390     0.547142857       1
     0.603900604     0.390060390     0.547142857       1
     0.603999604     0.399960400     0.547142857       1
     0.613998614     0.399861400     0.547142857       1
     0.614097614     0.409761410     0.547142857       1
     0.624096624     0.409662410     0.547142857       1
     0.624195624     0.419562420     0.547142857       1
     0.634194634     0.419463419     0.547142857       1
     0.634293634     0.429363429     0.547142857       1
     0.644292644     0.429264429     0.547142857       1
     0.644391644     0.439164439     0.547142857       1
     0.654390654     0.439065439     0.547142857       1
     0.654489654     0.448965449     0.547142857       1
     0.664488664     0.448866449     0.547142857       1
     0.664587665     0.458766459     0.547142857       1
     0.674586675     0.458667459     0.547142857       1
     0.674685675     0.468567469     0.547142857       1
     0.684684685     0.468468468     0.547142857       1
     0.684783685     0.478368478     0.547142857       1
     0.694782695     0.478269478     0.547142857       1
     0.694881695     0.488169488     0.547142857       1
     0.704880705     0.488070488     0.547142857       1
     0.704979705     0.497970498     0.547142857       1
     0.714978715     0.497871498     0.547142857       1
     0.715077715     0.507771508     0.547142857       1
     0.725076725     0.507672508     0.547142857       1
     0.725175725     0.517572518     0.547142857       1
     0.735174735     0.517473517     0.547142857       1
     0.735273735     0.527373527     0.547142857       1
     0.745272745     0.527274527     0.547142857       1
     0.745371745     0.537174537     0.547142857       1
     0.755370755     0.537075537     0.547142857       1
     0.755469755     0.546975547     0.547142857       1
     0.765468765     0.546876547     0.547142857       1
     0.765567766     0.556776557     0.547142857       1
     0.775566776     0.556677557     0.547142857       1
     0.775665776     0.566577567     0.547142857       1
     0.785664786     0.566478566     0.547142857       1
     0.785763786     0.576378576     0.547142857       1
     0.795762796     0.576279576     0.547142857       1
     0.795861796     0.586179586     0.547142857       1
     0.805860806     0.586080586     0.547142857       1
     0.805959806     0.595980596     0.547142857       1
     0.815958816     0.595881596     0.547142857       1
     0.816057816     0.605781606     0.547142857       1
     0.826056826     0.605682606     0.547142857       1
     0.826155826     0.615582616     0.547142857       1
     0.836154836     0.615483615     0.547142857       1
     0.836253836     0.625383625     0.547142857       1
     0.846252846     0.625284625     0.547142857       1
     0.846351846     0.635184635     0.547142857       1
     0.856350856     0.635085635     0.547142857       1
     0.856449856     0.644985645     0.547142857       1
     0.866448866     0.644886645     0.547142857       1
     0.866547867     0.654786655     0.547142857       1
     0.876546877     0.654687655     0.547142857       1
     0.876645877     0.664587665     0.547142857       1
     0.886644887     0.664488664     0.547142857       1
     0.886743887     0.674388674     0.547142857       1
     0.896742897     0.674289674     0.547142857       1
     0.896841897     0.684189684     0.547142857       1
     0.906840907     0.684090684     0.547142857       1
     0.906939907     0.693990694     0.547142857       1
     0.916938917     0.693891694     0.547142857       1
     0.917037917     0.703791704     0.547142857       1
     0.927036927     0.703692704     0.547142857       1
     0.927135927     0.713592714     0.547142857       1
     0.937134937     0.713493713     0.547142857       1
     0.937233937     0.723393723     0.547142857       1
     0.947232947     0.723294723     0.547142857       1
     0.947331947     0.733194733     0.547142857       1
     0.957330957     0.733095733     0.547142857       1
     0.957429957     0.742995743     0.547142857       1
     0.967428967     0.742896743     0.547142857       1
     0.967527968     0.752796753     0.547142857       1
     0.977526978     0.752697753     0.547142857       1
     0.977625978     0.762597763     0.547142857       1
     0.987624988     0.762498762     0.547142857       1
     0.987723988     0.772398772     0.547142857       1
     0.997722998     0.772299772     0.547142857       1
     0.997821998     0.782199782     0.547142857       1
     0.007821008     0.782100782     0.547142857       1
     0.007920008     0.792000792     0.547142857       1
     0.017919018     0.791901792     0.547142857       1
     0.018018018     0.801801802     0.547142857       1
     0.028017028     0.801702802     0.547142857       1
     0.028116028     0.811602812     0.547142857       1
     0.038115038     0.811503812     0.547142857       1
     0.038214038     0.821403821     0.547142857       1
     0.048213048     0.821304821     0.547142857       1
     0.048312048     0.831204831     0.547142857       1
     0.058311058     0.831105831     0.547142857       1
     0.058410058     0.841005841     0.547142857       1
     0.068409068     0.840906841     0.547142857       1
     0.068508069     0.850806851     0.547142857       1
     0.078507079     0.850707851     0.547142857       1
     0.078606079     0.860607861     0.547142857       1
     0.088605089     0.860508861     0.547142857       1
     0.088704089     0.870408870     0.547142857       1
     0.098703099     0.870309870     0.547142857       1
     0.098802099     0.880209880     0.547142857       1
     0.108801109     0.880110880     0.547142857       1
     0.108900109     0.890010890     0.547142857       1
     0.118899119     0.889911890     0.547142857       1
     0.118998119     0.899811900     0.547142857       1
     0.128997129     0.899712900     0.547142857       1
     0.129096129     0.909612910     0.547142857       1
     0.139095139     0.909513910     0.547142857       1
     0.139194139     0.919413919     0.547142857       1
     0.149193149     0.919314919     0.547142857       1
     0.149292149     0.929214929     0.547142857       1
     0.159291159     0.929115929     0.547142857       1
     0.159390159     0.939015939     0.547142857       1
     0.169389169     0.938916939     0.547142857       1
     0.169488169     0.948816949     0.547142857       1
     0.179487179     0.948717949     0.547142857       1
     0.179586180     0.958617959     0.547142857       1
     0.189585190     0.958518959     0.547142857       1
     0.189684190     0.968418968     0.547142857       1
     0.199683200     0.968319968     0.547142857       1
     0.199782200     0.978219978     0.547142857       1
     0.209781210     0.978120978     0.547142857       1
     0.209880210     0.988020988     0.547142857       1
     0.219879220     0.987921988     0.547142857       1
     0.219978220     0.997821998     0.547142857       1
     0.229977230     0.997722998     0.547142857       1
     0.230076230     0.007623008     0.547142857       1
     0.240075240     0.007524008     0.547142857       1
     0.240174240     0.017424017     0.547142857       1
     0.250173250     0.017325017     0.547142857       1
     0.250272250     0.027225027     0.547142857       1
     0.260271260     0.027126027     0.547142857       1
     0.260370260     0.037026037     0.547142857       1
     0.270369270     0.036927037     0.547142857       1
     0.270468270     0.046827047     0.547142857       1
     0.280467280     0.046728047     0.547142857       1
     0.280566281     0.056628057     0.547142857       1
     0.290565291     0.056529057     0.547142857       1
     0.290664291     0.066429066     0.547142857       1
     0.300663301     0.066330066     0.547142857       1
     0.300762301     0.076230076     0.547142857       1
     0.310761311     0.076131076     0.547142857       1
     0.310860311     0.086031086     0.547142857       1
     0.320859321     0.085932086     0.547142857       1
     0.320958321     0.095832096     0.547142857       1
     0.330957331     0.095733096     0.547142857       1
     0.331056331     0.105633106     0.547142857       1
     0.341055341     0.105534106     0.547142857       1
     0.341154341     0.115434115     0.547142857       1
     0.351153351     0.115335115     0.547142857       1
     0.351252351     0.125235125     0.547142857       1
     0.361251361     0.125136125     0.547142857       1
     0.361350361     0.135036135     0.547142857       1
     0.371349371     0.134937135     0.547142857       1
     0.371448371     0.144837145     0.547142857       1
     0.381447381     0.144738145     0.547142857       1
     0.381546382     0.154638155     0.547142857       1
     0.391545392     0.154539155     0.547142857       1
     0.391644392     0.164439164     0.547142857       1
     0.401643402     0.164340164     0.547142857       1
     0.401742402     0.174240174     0.547142857       1
     0.411741412     0.174141174     0.547142857       1
     0.411840412     0.184041184     0.547142857       1
     0.421839422     0.183942184     0.547142857       1
     0.421938422     0.193842194     0.547142857       1
     0.431937432     0.193743194     0.547142857       1
     0.432036432     0.203643204     0.547142857       1
     0.442035442     0.203544204     0.547142857       1
     0.442134442     0.213444213     0.547142857       1
     0.452133452     0.213345213     0.547142857       1
     0.452232452     0.223245223     0.547142857       1
     0.462231462     0.223146223     0.547142857       1
     0.462330462     0.233046233     0.547142857       1
     0.472329472     0.232947233     0.547142857       1
     0.472428472     0.242847243     0.547142857       1
     0.482427482     0.242748243     0.547142857       1
     0.482526483     0.252648253     0.547142857       1
     0.492525493     0.252549253     0.547142857       1
     0.492624493     0.262449262     0.547142857       1
     0.502623503     0.262350262     0.547142857       1
     0.502722503     0.272250272     0.547142857       1
     0.512721513     0.272151272     0.547142857       1
     0.512820513     0.282051282     0.547142857       1
     0.522819523     0.281952282     0.547142857       1
     0.522918523     0.291852292     0.547142857       1
     0.532917533     0.291753292     0.547142857       1
     0.533016533     0.301653302     0.547142857       1
     0.543015543     0.301554302     0.547142857       1
     0.543114543     0.311454311     0.547142857       1
     0.553113553     0.311355311     0.547142857       1
     0.553212553     0.321255321     0.547142857       1
     0.563211563     0.321156321     0.547142857       1
     0.563310563     0.331056331     0.547142857       1
     0.573309573     0.330957331     0.547142857       1
     0.573408573     0.340857341     0.547142857       1
     0.583407583     0.340758341     0.547142857       1
     0.583506584     0.350658351     0.547142857       1
     0.593505594     0.350559351     0.547142857       1
     0.593604594     0.360459360     0.547142857       1
     0.603603604     0.360360360     0.547142857       1
     0.603702604     0.370260370     0.547142857       1
     0.613701614     0.370161370     0.547142857       1
     0.613800614     0.380061380     0.547142857       1
     0.623799624     0.379962380     0.547142857       1
     0.623898624     0.389862390     0.547142857       1
     0.633897634     0.389763390     0.547142857       1
     0.633996634     0.399663400     0.547142857       1
     0.643995644     0.399564400     0.547142857       1
     0.644094644     0.409464409     0.547142857       1
     0.654093654     0.409365409     0.547142857       1
     0.654192654     0.419265419     0.547142857       1
     0.664191664     0.419166419     0.547142857       1
     0.664290664     0.429066429     0.547142857       1
     0.674289674     0.428967429     0.547142857       1
     0.674388674     0.438867439     0.547142857       1
     0.684387684     0.438768439     0.547142857       1
     0.684486684     0.448668449     0.547142857       1
     0.694485694     0.448569449     0.547142857       1
     0.694584695     0.458469458     0.547142857       1
     0.704583705     0.458370458     0.547142857       1
     0.704682705     0.468270468     0.547142857       1
     0.714681715     0.468171468     0.547142857       1
     0.714780715     0.478071478     0.547142857       1
     0.724779725     0.477972478     0.547142857       1
     0.724878725     0.487872488     0.547142857       1
     0.734877735     0.487773488     0.547142857       1
     0.734976735     0.497673498     0.547142857       1
     0.744975745     0.497574498     0.547142857       1
     0.745074745     0.507474507     0.547142857       1
     0.755073755     0.507375507     0.547142857       1
     0.755172755     0.517275517     0.547142857       1
     0.765171765     0.517176517     0.547142857       1
     0.765270765     0.527076527     0.547142857       1
     0.775269775     0.526977527     0.547142857       1
     0.775368775     0.536877537     0.547142857       1
     0.785367785     0.536778537     0.547142857       1
     0.785466785     0.546678547     0.547142857       1
     0.795465795     0.546579547     0.547142857       1
     0.795564796     0.556479556     0.547142857       1
     0.805563806     0.556380556     0.547142857       1
     0.805662806     0.566280566     0.547142857       1
     0.815661816     0.566181566     0.547142857       1
     0.815760816     0.576081576     0.547142857       1
     0.825759826     0.575982576     0.547142857       1
     0.825858826     0.585882586     0.547142857       1
     0.835857836     0.585783586     0.547142857       1
     0.835956836     0.595683596     0.547142857       1
     0.845955846     0.595584596     0.547142857       1
     0.846054846     0.605484605     0.547142857       1
     0.856053856     0.605385605     0.547142857       1
     0.856152856     0.615285615     0.547142857       1
     0.866151866     0.615186615     0.547142857       1
     0.866250866     0.625086625     0.547142857       1
     0.876249876     0.624987625     0.547142857       1
     0.876348876     0.634887635     0.547142857       1
     0.886347886     0.634788635     0.547142857       1
     0.886446886     0.644688645     0.547142857       1
     0.896445896     0.644589645     0.547142857       1
     0.896544897     0.654489654     0.547142857       1
     0.906543907     0.654390654     0.547142857       1
     0.906642907     0.664290664     0.547142857       1
     0.916641917     0.664191664     0.547142857       1
     0.916740917     0.674091674     0.547142857       1
     0.926739927     0.673992674     0.547142857       1
     0.926838927     0.683892684     0.547142857       1
     0.936837937     0.683793684     0.547142857       1
     0.936936937     0.693693694     0.547142857       1
     0.946935947     0.693594694     0.547142857       1
     0.947034947     0.703494703     0.547142857       1
     0.957033957     0.703395703     0.547142857       1
     0.957132957     0.713295713     0.547142857       1
     0.967131967     0.713196713     0.547142857       1
     0.967230967     0.723096723     0.547142857       1
     0.977229977     0.722997723     0.547142857       1
     0.977328977     0.732897733     0.547142857       1
     0.987327987     0.732798733     0.547142857       1
     0.987426987     0.742698743     0.547142857       1
     0.997425997     0.742599743     0.547142857       1
     0.997524998     0.752499752     0.547142857       1
     0.007524008     0.752400752     0.547142857       1
     0.007623008     0.762300762     0.547142857       1
     0.017622018     0.762201762     0.547142857       1
     0.017721018     0.772101772     0.547142857       1
     0.027720028     0.772002772     0.547142857       1
     0.027819028     0.781902782     0.547142857       1
     0.037818038     0.781803782     0.547142857       1
     0.037917038     0.791703792     0.547142857       1
     0.047916048     0.791604792     0.547142857       1
     0.048015048     0.801504802     0.547142857       1
     0.058014058     0.801405801     0.547142857       1
     0.058113058     0.811305811     0.547142857       1
     0.068112068     0.811206811     0.547142857       1
     0.068211068     0.821106821     0.547142857       1
     0.078210078     0.821007821     0.547142857       1
     0.078309078     0.830907831     0.547142857       1
     0.088308088     0.830808831     0.547142857       1
     0.088407088     0.840708841     0.547142857       1
     0.098406098     0.840609841     0.547142857       1
     0.098505099     0.850509851     0.547142857       1
     0.108504109     0.850410850     0.547142857       1
     0.108603109     0.860310860     0.547142857       1
     0.118602119     0.860211860     0.547142857       1
     0.118701119     0.870111870     0.547142857       1
     0.128700129     0.870012870     0.547142857       1
     0.128799129     0.879912880     0.547142857       1
     0.138798139     0.879813880     0.547142857       1
     0.138897139     0.889713890     0.547142857       1
     0.148896149     0.889614890     0.547142857       1
     0.148995149     0.899514900     0.547142857       1
     0.158994159     0.899415899     0.547142857       1
     0.159093159     0.909315909     0.547142857       1
     0.169092169     0.909216909     0.547142857       1
     0.169191169     0.919116919     0.547142857       1
     0.179190179     0.919017919     0.547142857       1
     0.179289179     0.928917929     0.547142857       1
     0.189288189     0.928818929     0.547142857       1
     0.189387189     0.938718939     0.547142857       1
     0.199386199     0.938619939     0.547142857       1
     0.199485199     0.948519949     0.547142857       1
     0.209484209     0.948420948     0.547142857       1
     0.209583210     0.958320958     0.547142857       1
     0.219582220     0.958221958     0.547142857       1
     0.219681220     0.968121968     0.547142857       1
     0.229680230     0.968022968     0.547142857       1
     0.229779230     0.977922978     0.547142857       1
     0.239778240     0.977823978     0.547142857       1
     0.239877240     0.987723988     0.547142857       1
     0.249876250     0.987624988     0.547142857       1
     0.249975250     0.997524998     0.547142857       1
     0.259974260     0.997425997     0.547142857       1
     0.260073260     0.007326007     0.547142857       1
     0.270072270     0.007227007     0.547142857       1
     0.270171270     0.017127017     0.547142857       1
     0.280170280     0.017028017     0.547142857       1
     0.280269280     0.026928027     0.547142857       1
     0.290268290     0.026829027     0.547142857       1
     0.290367290     0.036729037     0.547142857       1
     0.300366300     0.036630037     0.547142857       1
     0.300465300     0.046530047     0.547142857       1
     0.310464310     0.046431046     0.547142857       1
     0.310563311     0.056331056     0.547142857       1
     0.320562321     0.056232056     0.547142857       1
     0.320661321     0.066132066     0.547142857       1
     0.330660331     0.066033066     0.547142857       1
     0.330759331     0.075933076     0.547142857       1
     0.340758341     0.075834076     0.547142857       1
     0.340857341     0.085734086     0.547142857       1
     0.350856351     0.085635086     0.547142857       1
     0.350955351     0.095535096     0.547142857       1
     0.360954361     0.095436095     0.547142857       1
     0.361053361     0.105336105     0.547142857       1
     0.371052371     0.105237105     0.547142857       1
     0.371151371     0.115137115     0.547142857       1
     0.381150381     0.115038115     0.547142857       1
     0.381249381     0.124938125     0.547142857       1
     0.391248391     0.124839125     0.547142857       1
     0.391347391     0.134739135     0.547142857       1
     0.401346401     0.134640135     0.547142857       1
     0.401445401     0.144540145     0.547142857       1
     0.411444411     0.144441144     0.547142857       1
     0.411543412     0.154341154     0.547142857       1
     0.421542422     0.154242154     0.547142857       1
     0.421641422     0.164142164     0.547142857       1
     0.431640432     0.164043164     0.547142857       1
     0.431739432     0.173943174     0.547142857       1
     0.441738442     0.173844174     0.547142857       1
     0.441837442     0.183744184     0.547142857       1
     0.451836452     0.183645184     0.547142857       1
     0.451935452     0.193545194     0.547142857       1
     0.461934462     0.193446193     0.547142857       1
     0.462033462     0.203346203     0.547142857       1
     0.472032472     0.203247203     0.547142857       1
     0.472131472     0.213147213     0.547142857       1
     0.482130482     0.213048213     0.547142857       1
     0.482229482     0.222948223     0.547142857       1
     0.492228492     0.222849223     0.547142857       1
     0.492327492     0.232749233     0.547142857       1
     0.502326502     0.232650233     0.547142857       1
     0.502425502     0.242550243     0.547142857       1
     0.512424512     0.242451242     0.547142857       1
     0.512523513     0.252351252     0.547142857       1
     0.522522523     0.252252252     0.547142857       1
     0.522621523     0.262152262     0.547142857       1
     0.532620533     0.262053262     0.547142857       1
     0.532719533     0.271953272     0.547142857       1
     0.542718543     0.271854272     0.547142857       1
     0.542817543     0.281754282     0.547142857       1
     0.552816553     0.281655282     0.547142857       1
     0.552915553     0.291555292     0.547142857       1
     0.562914563     0.291456291     0.547142857       1
     0.563013563     0.301356301     0.547142857       1
     0.573012573     0.301257301     0.547142857       1
     0.573111573     0.311157311     0.547142857       1
     0.583110583     0.311058311     0.547142857       1
     0.583209583     0.320958321     0.547142857       1
     0.593208593     0.320859321     0.547142857       1
     0.593307593     0.330759331     0.547142857       1
     0.603306603     0.330660331     0.547142857       1
     0.603405603     0.340560341     0.547142857       1
     0.613404613     0.340461340     0.547142857       1
     0.613503614     0.350361350     0.547142857       1
     0.623502624     0.350262350     0.547142857       1
     0.623601624     0.360162360     0.547142857       1
     0.633600634     0.360063360     0.547142857       1
     0.633699634     0.369963370     0.547142857       1
     0.643698644     0.369864370     0.547142857       1
     0.643797644     0.379764380     0.547142857       1
     0.653796654     0.379665380     0.547142857       1
     0.653895654     0.389565390     0.547142857       1
     0.663894664     0.389466389     0.547142857       1
     0.663993664     0.399366399     0.547142857       1
     0.673992674     0.399267399     0.547142857       1
     0.674091674     0.409167409     0.547142857       1
     0.684090684     0.409068409     0.547142857       1
     0.684189684     0.418968419     0.547142857       1
     0.694188694     0.418869419     0.547142857       1
     0.694287694     0.428769429     0.547142857       1
     0.704286704     0.428670429     0.547142857       1
     0.704385704     0.438570439     0.547142857       1
     0.714384714     0.438471438     0.547142857       1
     0.714483714     0.448371448     0.547142857       1
     0.724482724     0.448272448     0.547142857       1
     0.724581725     0.458172458     0.547142857       1
     0.734580735     0.458073458     0.547142857       1
     0.734679735     0.467973468     0.547142857       1
     0.744678745     0.467874468     0.547142857       1
     0.744777745     0.477774478     0.547142857       1
     0.754776755     0.477675478     0.547142857       1
     0.754875755     0.487575488     0.547142857       1
     0.764874765     0.487476487     0.547142857       1
     0.764973765     0.497376497     0.547142857       1
     0.774972775     0.497277497     0.547142857       1
     0.775071775     0.507177507     0.547142857       1
     0.785070785     0.507078507     0.547142857       1
     0.785169785     0.516978517     0.547142857       1
     0.795168795     0.516879517     0.547142857       1
     0.795267795     0.526779527     0.547142857       1
     0.805266805     0.526680527     0.547142857       1
     0.805365805     0.536580537     0.547142857       1
     0.815364815     0.536481536     0.547142857       1
     0.815463815     0.546381546     0.547142857       1
     0.825462825     0.546282546     0.547142857       1
     0.825561826     0.556182556     0.547142857       1
     0.835560836     0.556083556     0.547142857       1
     0.835659836     0.565983566     0.547142857       1
     0.845658846     0.565884566     0.547142857       1
     0.845757846     0.575784576     0.547142857       1
     0.855756856     0.575685576     0.547142857       1
     0.855855856     0.585585586     0.547142857       1
     0.865854866     0.585486585     0.547142857       1
     0.865953866     0.595386595     0.547142857       1
     0.875952876     0.595287595     0.547142857       1
     0.876051876     0.605187605     0.547142857       1
     0.886050886     0.605088605     0.547142857       1
     0.886149886     0.614988615     0.547142857       1
     0.896148896     0.614889615     0.547142857       1
     0.896247896     0.624789625     0.547142857       1
     0.906246906     0.624690625     0.547142857       1
     0.906345906     0.634590635     0.547142857       1
     0.916344916     0.634491634     0.547142857       1
     0.916443916     0.644391644     0.547142857       1
     0.926442926     0.644292644     0.547142857       1
     0.926541927     0.654192654     0.547142857       1
     0.936540937     0.654093654     0.547142857       1
     0.936639937     0.663993664     0.547142857       1
     0.946638947     0.663894664     0.547142857       1
     0.946737947     0.673794674     0.547142857       1
     0.956736957     0.673695674     0.547142857       1
     0.956835957     0.683595684     0.547142857       1
     0.966834967     0.683496683     0.547142857       1
     0.966933967     0.693396693     0.547142857       1
     0.976932977     0.693297693     0.547142857       1
     0.977031977     0.703197703     0.547142857       1
     0.987030987     0.703098703     0.547142857       1
     0.987129987     0.712998713     0.547142857       1
     0.997128997     0.712899713     0.547142857       1
     0.997227997     0.722799723     0.547142857       1
     0.007227007     0.722700723     0.547142857       1
     0.007326007     0.732600733     0.547142857       1
     0.017325017     0.732501733     0.547142857       1
     0.017424017     0.742401742     0.547142857       1
     0.027423027     0.742302742     0.547142857       1
     0.027522028     0.752202752     0.547142857       1
     0.037521038     0.752103752     0.547142857       1
     0.037620038     0.762003762     0.547142857       1
     0.047619048     0.761904762     0.547142857       1
     0.047718048     0.771804772     0.547142857       1
     0.057717058     0.771705772     0.547142857       1
     0.057816058     0.781605782     0.547142857       1
     0.067815068     0.781506782     0.547142857       1
     0.067914068     0.791406791     0.547142857       1
     0.077913078     0.791307791     0.547142857       1
     0.078012078     0.801207801     0.547142857       1
     0.088011088     0.801108801     0.547142857       1
     0.088110088     0.811008811     0.547142857       1
     0.098109098     0.810909811     0.547142857       1
     0.098208098     0.820809821     0.547142857       1
     0.108207108     0.820710821     0.547142857       1
     0.108306108     0.830610831     0.547142857       1
     0.118305118     0.830511831     0.547142857       1
     0.118404118     0.840411840     0.547142857       1
     0.128403128     0.840312840     0.547142857       1
     0.128502129     0.850212850     0.547142857       1
     0.138501139     0.850113850     0.547142857       1
     0.138600139     0.860013860     0.547142857       1
     0.148599149     0.859914860     0.547142857       1
     0.148698149     0.869814870     0.547142857       1
     0.158697159     0.869715870     0.547142857       1
     0.158796159     0.879615880     0.547142857       1
     0.168795169     0.879516880     0.547142857       1
     0.168894169     0.889416889     0.547142857       1
     0.178893179     0.889317889     0.547142857       1
     0.178992179     0.899217899     0.547142857       1
     0.188991189     0.899118899     0.547142857       1
     0.189090189     0.909018909     0.547142857       1
     0.199089199     0.908919909     0.547142857       1
     0.199188199     0.918819919     0.547142857       1
     0.209187209     0.918720919     0.547142857       1
     0.209286209     0.928620929     0.547142857       1
     0.219285219     0.928521929     0.547142857       1
     0.219384219     0.938421938     0.547142857       1
     0.229383229     0.938322938     0.547142857       1
     0.229482229     0.948222948     0.547142857       1
     0.239481239     0.948123948     0.547142857       1
     0.239580240     0.958023958     0.547142857       1
     0.249579250     0.957924958     0.547142857       1
     0.249678250     0.967824968     0.547142857       1
     0.259677260     0.967725968     0.547142857       1
     0.259776260     0.977625978     0.547142857       1
     0.269775270     0.977526978     0.547142857       1
     0.269874270     0.987426987     0.547142857       1
     0.279873280     0.987327987     0.547142857       1
     0.279972280     0.997227997     0.547142857       1
     0.289971290     0.997128997     0.547142857       1
     0.290070290     0.007029007     0.547142857       1
     0.300069300     0.006930007     0.547142857       1
     0.300168300     0.016830017     0.547142857       1
     0.310167310     0.016731017     0.547142857       1
     0.310266310     0.026631027     0.547142857       1
     0.320265320     0.026532027     0.547142857       1
     0.320364320     0.036432036     0.547142857       1
     0.330363330     0.036333036     0.547142857       1
     0.330462330     0.046233046     0.547142857       1
     0.340461340     0.046134046     0.547142857       1
     0.340560341     0.056034056     0.547142857       1
     0.350559351     0.055935056     0.547142857       1
     0.350658351     0.065835066     0.547142857       1
     0.360657361     0.065736066     0.547142857       1
     0.360756361     0.075636076     0.547142857       1
     0.370755371     0.075537076     0.547142857       1
     0.370854371     0.085437085     0.547142857       1
     0.380853381     0.085338085     0.547142857       1
     0.380952381     0.095238095     0.547142857       1
     0.390951391     0.095139095     0.547142857       1
     0.391050391     0.105039105     0.547142857       1
     0.401049401     0.104940105     0.547142857       1
     0.401148401     0.114840115     0.547142857       1
     0.411147411     0.114741115     0.547142857       1
     0.411246411     0.124641125     0.547142857       1
     0.421245421     0.124542125     0.547142857       1
     0.421344421     0.134442134     0.547142857       1
     0.431343431     0.134343134     0.547142857       1
     0.431442431     0.144243144     0.547142857       1
     0.441441441     0.144144144     0.547142857       1
     0.441540442     0.154044154     0.547142857       1
     0.451539452     0.153945154     0.547142857       1
     0.451638452     0.163845164     0.547142857       1
     0.461637462     0.163746164     0.547142857       1
     0.461736462     0.173646174     0.547142857       1
     0.471735472     0.173547174     0.547142857       1
     0.471834472     0.183447183     0.547142857       1
     0.481833482     0.183348183     0.547142857       1
     0.481932482     0.193248193     0.547142857       1
     0.491931492     0.193149193     0.547142857       1
     0.492030492     0.203049203     0.547142857       1
     0.502029502     0.202950203     0.547142857       1
     0.502128502     0.212850213     0.547142857       1
     0.512127512     0.212751213     0.547142857       1
     0.512226512     0.222651223     0.547142857       1
     0.522225522     0.222552223     0.547142857       1
     0.522324522     0.232452232     0.547142857       1
     0.532323532     0.232353232     0.547142857       1
     0.532422532     0.242253242     0.547142857       1
     0.542421542     0.242154242     0.547142857       1
     0.542520543     0.252054252     0.547142857       1
     0.552519553     0.251955252     0.547142857       1
     0.552618553     0.261855262     0.547142857       1
     0.562617563     0.261756262     0.547142857       1
     0.562716563     0.271656272     0.547142857       1
     0.572715573     0.271557272     0.547142857       1
     0.572814573     0.281457281     0.547142857       1
     0.582813583     0.281358281     0.547142857       1
     0.582912583     0.291258291     0.547142857       1
     0.592911593     0.291159291     0.547142857       1
     0.593010593     0.301059301     0.547142857       1
     0.603009603     0.300960301     0.547142857       1
     0.603108603     0.310860311     0.547142857       1
     0.613107613     0.310761311     0.547142857       1
     0.613206613     0.320661321     0.547142857       1
     0.623205623     0.320562321     0.547142857       1
     0.623304623     0.330462330     0.547142857       1
     0.633303633     0.330363330     0.547142857       1
     0.633402633     0.340263340     0.547142857       1
     0.643401643     0.340164340     0.547142857       1
     0.643500644     0.350064350     0.547142857       1
     0.653499653     0.349965350     0.547142857       1
     0.653598654     0.359865360     0.547142857       1
     0.663597664     0.359766360     0.547142857       1
     0.663696664     0.369666370     0.547142857       1
     0.673695674     0.369567370     0.547142857       1
     0.673794674     0.379467379     0.547142857       1
     0.683793684     0.379368379     0.547142857       1
     0.683892684     0.389268389     0.547142857       1
     0.693891694     0.389169389     0.547142857       1
     0.693990694     0.399069399     0.547142857       1
     0.703989704     0.398970399     0.547142857       1
     0.704088704     0.408870409     0.547142857       1
     0.714087714     0.408771409     0.547142857       1
     0.714186714     0.418671419     0.547142857       1
     0.724185724     0.418572419     0.547142857       1
     0.724284724     0.428472428     0.547142857       1
     0.734283734     0.428373428     0.547142857       1
     0.734382734     0.438273438     0.547142857       1
     0.744381744     0.438174438     0.547142857       1
     0.744480744     0.448074448     0.547142857       1
     0.754479754     0.447975448     0.547142857       1
     0.754578755     0.457875458     0.547142857       1
     0.764577765     0.457776458     0.547142857       1
     0.764676765     0.467676468     0.547142857       1
     0.774675775     0.467577468     0.547142857       1
     0.774774775     0.477477477     0.547142857       1
     0.784773785     0.477378477     0.547142857       1
     0.784872785     0.487278487     0.547142857       1
     0.794871795     0.487179487     0.547142857       1
     0.794970795     0.497079497     0.547142857       1
     0.804969805     0.496980497     0.547142857       1
     0.805068805     0.506880507     0.547142857       1
     0.815067815     0.506781507     0.547142857       1
     0.815166815     0.516681517     0.547142857       1
     0.825165825     0.516582517     0.547142857       1
     0.825264825     0.526482526     0.547142857       1
     0.835263835     0.526383526     0.547142857       1
     0.835362835     0.536283536     0.547142857       1
     0.845361845     0.536184536     0.547142857       1
     0.845460845     0.546084546     0.547142857       1
     0.855459855     0.545985546     0.547142857       1
     0.855558856     0.555885556     0.547142857       1
     0.865557866     0.555786556     0.547142857       1
     0.865656866     0.565686566     0.547142857       1
     0.875655876     0.565587566     0.547142857       1
     0.875754876     0.575487575     0.547142857       1
     0.885753886     0.575388575     0.547142857       1
     0.885852886     0.585288585     0.547142857       1
     0.895851896     0.585189585     0.547142857       1
     0.895950896     0.595089595     0.547142857       1
     0.905949906     0.594990595     0.547142857       1
     0.906048906     0.604890605     0.547142857       1
     0.916047916     0.604791605     0.547142857       1
     0.916146916     0.614691615     0.547142857       1
     0.926145926     0.614592615     0.547142857       1
     0.926244926     0.624492624     0.547142857       1
     0.936243936     0.624393624     0.547142857       1
     0.936342936     0.634293634     0.547142857       1
     0.946341946     0.634194634     0.547142857       1
     0.946440946     0.644094644     0.547142857       1
     0.956439956     0.643995644     0.547142857       1
     0.956538957     0.653895654     0.547142857       1
     0.966537967     0.653796654     0.547142857       1
     0.966636967     0.663696664     0.547142857       1
     0.976635977     0.663597664     0.547142857       1
     0.976734977     0.673497673     0.547142857       1
     0.986733987     0.673398673     0.547142857       1
     0.986832987     0.683298683     0.547142857       1
     0.996831997     0.683199683     0.547142857       1
     0.996930997     0.693099693     0.547142857       1
     0.006930007     0.693000693     0.547142857       1
     0.007029007     0.702900703     0.547142857       1
     0.017028017     0.702801703     0.547142857       1
     0.017127017     0.712701713     0.547142857       1
     0.027126027     0.712602713     0.547142857       1
     0.027225027     0.722502723     0.547142857       1
     0.037224037     0.722403722     0.547142857       1
     0.037323037     0.732303732     0.547142857       1
     0.047322047     0.732204732     0.547142857       1
     0.047421047     0.742104742     0.547142857       1
     0.057420057     0.742005742     0.547142857       1
     0.057519058     0.751905752     0.547142857       1
     0.067518068     0.751806752     0.547142857       1
     0.067617068     0.761706762     0.547142857       1
     0.077616078     0.761607762     0.547142857       1
     0.077715078     0.771507772     0.547142857       1
     0.087714088     0.771408771     0.547142857       1
     0.087813088     0.781308781     0.547142857       1
     0.097812098     0.781209781     0.547142857       1
     0.097911098     0.791109791     0.547142857       1
     0.107910108     0.791010791     0.547142857       1
     0.108009108     0.800910801     0.547142857       1
     0.118008118     0.800811801     0.547142857       1
     0.118107118     0.810711811     0.547142857       1
     0.128106128     0.810612811     0.547142857       1
     0.128205128     0.820512821     0.547142857       1
     0.138204138     0.820413820     0.547142857       1
     0.138303138     0.830313830     0.547142857       1
     0.148302148     0.830214830     0.547142857       1
     0.148401148     0.840114840     0.547142857       1
     0.158400158     0.840015840     0.547142857       1
     0.158499158     0.849915850     0.547142857       1
     0.168498168     0.849816850     0.547142857       1
     0.168597169     0.859716860     0.547142857       1
     0.178596179     0.859617860     0.547142857       1
     0.178695179     0.869517870     0.547142857       1
     0.188694189     0.869418869     0.547142857       1
     0.188793189     0.879318879     0.547142857       1
     0.198792199     0.879219879     0.547142857       1
     0.198891199     0.889119889     0.547142857       1
     0.208890209     0.889020889     0.547142857       1
     0.208989209     0.898920899     0.547142857       1
     0.218988219     0.898821899     0.547142857       1
     0.219087219     0.908721909     0.547142857       1
     0.229086229     0.908622909     0.547142857       1
     0.229185229     0.918522919     0.547142857       1
     0.239184239     0.918423918     0.547142857       1
     0.239283239     0.928323928     0.547142857       1
     0.249282249     0.928224928     0.547142857       1
     0.249381249     0.938124938     0.547142857       1
     0.259380259     0.938025938     0.547142857       1
     0.259479259     0.947925948     0.547142857       1
     0.269478269     0.947826948     0.547142857       1
     0.269577270     0.957726958     0.547142857       1
     0.279576280     0.957627958     0.547142857       1
     0.279675280     0.967527968     0.547142857       1
     0.289674290     0.967428967     0.547142857       1
     0.289773290     0.977328977     0.547142857       1
     0.299772300     0.977229977     0.547142857       1
     0.299871300     0.987129987     0.547142857       1
     0.309870310     0.987030987     0.547142857       1
     0.309969310     0.996930997     0.547142857       1
     0.319968320     0.996831997     0.547142857       1
     0.320067320     0.006732007     0.547142857       1
     0.330066330     0.006633007     0.547142857       1
     0.330165330     0.016533017     0.547142857       1
     0.340164340     0.016434016     0.547142857       1
     0.340263340     0.026334026     0.547142857       1
     0.350262350     0.026235026     0.547142857       1
     0.350361350     0.036135036     0.547142857       1
     0.360360360     0.036036036     0.547142857       1
     0.360459360     0.045936046     0.547142857       1
     0.370458370     0.045837046     0.547142857       1
     0.370557371     0.055737056     0.547142857       1
     0.380556381     0.055638056     0.547142857       1
     0.380655381     0.065538066     0.547142857       1
     0.390654391     0.065439065     0.547142857       1
     0.390753391     0.075339075     0.547142857       1
     0.400752401     0.075240075     0.547142857       1
     0.400851401     0.085140085     0.547142857       1
     0.410850411     0.085041085     0.547142857       1
     0.410949411     0.094941095     0.547142857       1
     0.420948421     0.094842095     0.547142857       1
     0.421047421     0.104742105     0.547142857       1
     0.431046431     0.104643105     0.547142857       1
     0.431145431     0.114543115     0.547142857       1
     0.441144441     0.114444114     0.547142857       1
     0.441243441     0.124344124     0.547142857       1
     0.451242451     0.124245124     0.547142857       1
     0.451341451     0.134145134     0.547142857       1
     0.461340461     0.134046134     0.547142857       1
     0.461439461     0.143946144     0.547142857       1
     0.471438471     0.143847144     0.547142857       1
     0.471537472     0.153747154     0.547142857       1
     0.481536482     0.153648154     0.547142857       1
     0.481635482     0.163548164     0.547142857       1
     0.491634492     0.163449163     0.547142857       1
     0.491733492     0.173349173     0.547142857       1
     0.501732502     0.173250173     0.547142857       1
     0.501831502     0.183150183     0.547142857       1
     0.511830512     0.183051183     0.547142857       1
     0.511929512     0.192951193     0.547142857       1
     0.521928522     0.192852193     0.547142857       1
     0.522027522     0.202752203     0.547142857       1
     0.532026532     0.202653203     0.547142857       1
     0.532125532     0.212553213     0.547142857       1
     0.542124542     0.212454212     0.547142857       1
     0.542223542     0.222354222     0.547142857       1
     0.552222552     0.222255222     0.547142857       1
     0.552321552     0.232155232     0.547142857       1
     0.562320562     0.232056232     0.547142857       1
     0.562419562     0.241956242     0.547142857       1
     0.572418572     0.241857242     0.547142857       1
     0.572517573     0.251757252     0.547142857       1
     0.582516583     0.251658252     0.547142857       1
     0.582615583     0.261558262     0.547142857       1
     0.592614593     0.261459261     0.547142857       1
     0.592713593     0.271359271     0.547142857       1
     0.602712603     0.271260271     0.547142857       1
     0.602811603     0.281160281     0.547142857       1
     0.612810613     0.281061281     0.547142857       1
     0.612909613     0.290961291     0.547142857       1
     0.622908623     0.290862291     0.547142857       1
     0.623007623     0.300762301     0.547142857       1
     0.633006633     0.300663301     0.547142857       1
     0.633105633     0.310563311     0.547142857       1
     0.643104643     0.310464310     0.547142857       1
     0.643203643     0.320364320     0.547142857       1
     0.653202653     0.320265320     0.547142857       1
     0.653301653     0.330165330     0.547142857       1
     0.663300663     0.330066330     0.547142857       1
     0.663399663     0.339966340     0.547142857       1
     0.673398673     0.339867340     0.547142857       1
     0.673497673     0.349767350     0.547142857       1
     0.683496683     0.349668350     0.547142857       1
     0.683595684     0.359568360     0.547142857       1
     0.693594694     0.359469359     0.547142857       1
     0.693693694     0.369369369     0.547142857       1
     0.703692704     0.369270369     0.547142857       1
     0.703791704     0.379170379     0.547142857       1
     0.713790714     0.379071379     0.547142857       1
     0.713889714     0.388971389     0.547142857       1
     0.723888724     0.388872389     0.547142857       1
     0.723987724     0.398772399     0.547142857       1
     0.733986734     0.398673399     0.547142857       1
     0.734085734     0.408573409     0.547142857       1
     0.744084744     0.408474408     0.547142857       1
     0.744183744     0.418374418     0.547142857       1
     0.754182754     0.418275418     0.547142857       1
     0.754281754     0.428175428     0.547142857       1
     0.764280764     0.428076428     0.547142857       1
     0.764379764     0.437976438     0.547142857       1
     0.774378774     0.437877438     0.547142857       1
     0.774477774     0.447777448     0.547142857       1
     0.784476784     0.447678448     0.547142857       1
     0.784575785     0.457578458     0.547142857       1
     0.794574795     0.457479457     0.547142857       1
     0.794673795     0.467379467     0.547142857       1
     0.804672805     0.467280467     0.547142857       1
     0.804771805     0.477180477     0.547142857       1
     0.814770815     0.477081477     0.547142857       1
     0.814869815     0.486981487     0.547142857       1
     0.824868825     0.486882487     0.547142857       1
     0.824967825     0.496782497     0.547142857       1
     0.834966835     0.496683497     0.547142857       1
     0.835065835     0.506583507     0.547142857       1
     0.845064845     0.506484506     0.547142857       1
     0.845163845     0.516384516     0.547142857       1
     0.855162855     0.516285516     0.547142857       1
     0.855261855     0.526185526     0.547142857       1
     0.865260865     0.526086526     0.547142857       1
     0.865359865     0.535986536     0.547142857       1
     0.875358875     0.535887536     0.547142857       1
     0.875457875     0.545787546     0.547142857       1
     0.885456885     0.545688546     0.547142857       1
     0.885555886     0.555588556     0.547142857       1
     0.895554896     0.555489555     0.547142857       1
     0.895653896     0.565389565     0.547142857       1
     0.905652906     0.565290565     0.547142857       1
     0.905751906     0.575190575     0.547142857       1
     0.915750916     0.575091575     0.547142857       1
     0.915849916     0.584991585     0.547142857       1
     0.925848926     0.584892585     0.547142857       1
     0.925947926     0.594792595     0.547142857       1
     0.935946936     0.594693595     0.547142857       1
     0.936045936     0.604593605     0.547142857       1
     0.946044946     0.604494604     0.547142857       1
     0.946143946     0.614394614     0.547142857       1
     0.956142956     0.614295614     0.547142857       1
     0.956241956     0.624195624     0.547142857       1
     0.966240966     0.624096624     0.547142857       1
     0.966339966     0.633996634     0.547142857       1
     0.976338976     0.633897634     0.547142857       1
     0.976437976     0.643797644     0.547142857       1
     0.986436986     0.643698644     0.547142857       1
     0.986535987     0.653598654     0.547142857       1
     0.996534997     0.653499653     0.547142857       1
     0.996633997     0.663399663     0.547142857       1
     0.006633007     0.663300663     0.547142857       1
     0.006732007     0.673200673     0.547142857       1
     0.016731017     0.673101673     0.547142857       1
     0.016830017     0.683001683     0.547142857       1
     0.026829027     0.682902683     0.547142857       1
     0.026928027     0.692802693     0.547142857       1
     0.036927037     0.692703693     0.547142857       1
     0.037026037     0.702603703     0.547142857       1
     0.047025047     0.702504703     0.547142857       1
     0.047124047     0.712404712     0.547142857       1
     0.057123057     0.712305712     0.547142857       1
     0.057222057     0.722205722     0.547142857       1
     0.067221067     0.722106722     0.547142857       1
     0.067320067     0.732006732     0.547142857       1
     0.077319077     0.731907732     0.547142857       1
     0.077418077     0.741807742     0.547142857       1
     0.087417087     0.741708742     0.547142857       1
     0.087516088     0.751608752     0.547142857       1
     0.097515098     0.751509752     0.547142857       1
     0.097614098     0.761409761     0.547142857       1
     0.107613108     0.761310761     0.547142857       1
     0.107712108     0.771210771     0.547142857       1
     0.117711118     0.771111771     0.547142857       1
     0.117810118     0.781011781     0.547142857       1
     0.127809128     0.780912781     0.547142857       1
     0.127908128     0.790812791     0.547142857       1
     0.137907138     0.790713791     0.547142857       1
     0.138006138     0.800613801     0.547142857       1
     0.148005148     0.800514801     0.547142857       1
     0.148104148     0.810414810     0.547142857       1
     0.158103158     0.810315810     0.547142857       1
     0.158202158     0.820215820     0.547142857       1
     0.168201168     0.820116820     0.547142857       1
     0.168300168     0.830016830     0.547142857       1
     0.178299178     0.829917830     0.547142857       1
     0.178398178     0.839817840     0.547142857       1
     0.188397188     0.839718840     0.547142857       1
     0.188496188     0.849618850     0.547142857       1
     0.198495198     0.849519850     0.547142857       1
     0.198594199     0.859419859     0.547142857       1
     0.208593209     0.859320859     0.547142857       1
     0.208692209     0.869220869     0.547142857       1
     0.218691219     0.869121869     0.547142857       1
     0.218790219     0.879021879     0.547142857       1
     0.228789229     0.878922879     0.547142857       1
     0.228888229     0.888822889     0.547142857       1
     0.238887239     0.888723889     0.547142857       1
     0.238986239     0.898623899     0.547142857       1
     0.248985249     0.898524899     0.547142857       1
     0.249084249     0.908424908     0.547142857       1
     0.259083259     0.908325908     0.547142857       1
     0.259182259     0.918225918     0.547142857       1
     0.269181269     0.918126918     0.547142857       1
     0.269280269     0.928026928     0.547142857       1
     0.279279279     0.927927928     0.547142857       1
     0.279378279     0.937827938     0.547142857       1
     0.289377289     0.937728938     0.547142857       1
     0.289476289     0.947628948     0.547142857       1
     0.299475299     0.947529948     0.547142857       1
     0.299574300     0.957429957     0.547142857       1
     0.309573310     0.957330957     0.547142857       1
     0.309672310     0.967230967     0.547142857       1
     0.319671320     0.967131967     0.547142857       1
     0.319770320     0.977031977     0.547142857       1
     0.329769330     0.976932977     0.547142857       1
     0.329868330     0.986832987     0.547142857       1
     0.339867340     0.986733987     0.547142857       1
     0.339966340     0.996633997     0.547142857       1
     0.349965350     0.996534997     0.547142857       1
     0.350064350     0.006435006     0.547142857       1
     0.360063360     0.006336006     0.547142857       1
     0.360162360     0.016236016     0.547142857       1
     0.370161370     0.016137016     0.547142857       1
     0.370260370     0.026037026     0.547142857       1
     0.380259380     0.025938026     0.547142857       1
     0.380358380     0.035838036     0.547142857       1
     0.390357390     0.035739036     0.547142857       1
     0.390456390     0.045639046     0.547142857       1
     0.400455400     0.045540046     0.547142857       1
     0.400554401     0.055440055     0.547142857       1
     0.410553411     0.055341055     0.547142857       1
     0.410652411     0.065241065     0.547142857       1
     0.420651421     0.065142065     0.547142857       1
     0.420750421     0.075042075     0.547142857       1
     0.430749431     0.074943075     0.547142857       1
     0.430848431     0.084843085     0.547142857       1
     0.440847441     0.084744085     0.547142857       1
     0.440946441     0.094644095     0.547142857       1
     0.450945451     0.094545095     0.547142857       1
     0.451044451     0.104445104     0.547142857       1
     0.461043461     0.104346104     0.547142857       1
     0.461142461     0.114246114     0.547142857       1
     0.471141471     0.114147114     0.547142857       1
     0.471240471     0.124047124     0.547142857       1
     0.481239481     0.123948124     0.547142857       1
     0.481338481     0.133848134     0.547142857       1
     0.491337491     0.133749134     0.547142857       1
     0.491436491     0.143649144     0.547142857       1
     0.501435501     0.143550144     0.547142857       1
     0.501534502     0.153450153     0.547142857       1
     0.511533512     0.153351153     0.547142857       1
     0.511632512     0.163251163     0.547142857       1
     0.521631522     0.163152163     0.547142857       1
     0.521730522     0.173052173     0.547142857       1
     0.531729532     0.172953173     0.547142857       1
     0.531828532     0.182853183     0.547142857       1
     0.541827542     0.182754183     0.547142857       1
     0.541926542     0.192654193     0.547142857       1
     0.551925552     0.192555193     0.547142857       1
     0.552024552     0.202455202     0.547142857       1
     0.562023562     0.202356202     0.547142857       1
     0.562122562     0.212256212     0.547142857       1
     0.572121572     0.212157212     0.547142857       1
     0.572220572     0.222057222     0.547142857       1
     0.582219582     0.221958222     0.547142857       1
     0.582318582     0.231858232     0.547142857       1
     0.592317592     0.231759232     0.547142857       1
     0.592416592     0.241659242     0.547142857       1
     0.602415602     0.241560242     0.547142857       1
     0.602514603     0.251460251     0.547142857       1
     0.612513613     0.251361251     0.547142857       1
     0.612612613     0.261261261     0.547142857       1
     0.622611623     0.261162261     0.547142857       1
     0.622710623     0.271062271     0.547142857       1
     0.632709633     0.270963271     0.547142857       1
     0.632808633     0.280863281     0.547142857       1
     0.642807643     0.280764281     0.547142857       1
     0.642906643     0.290664291     0.547142857       1
     0.652905653     0.290565291     0.547142857       1
     0.653004653     0.300465300     0.547142857       1
     0.663003663     0.300366300     0.547142857       1
     0.663102663     0.310266310     0.547142857       1
     0.673101673     0.310167310     0.547142857       1
     0.673200673     0.320067320     0.547142857       1
     0.683199683     0.319968320     0.547142857       1
     0.683298683     0.329868330     0.547142857       1
     0.693297693     0.329769330     0.547142857       1
     0.693396693     0.339669340     0.547142857       1
     0.703395703     0.339570340     0.547142857       1
     0.703494703     0.349470349     0.547142857       1
     0.713493713     0.349371349     0.547142857       1
     0.713592714     0.359271359     0.547142857       1
     0.723591724     0.359172359     0.547142857       1
     0.723690724     0.369072369     0.547142857       1
     0.733689734     0.368973369     0.547142857       1
     0.733788734     0.378873379     0.547142857       1
     0.743787744     0.378774379     0.547142857       1
     0.743886744     0.388674389     0.547142857       1
     0.753885754     0.388575389     0.547142857       1
     0.753984754     0.398475398     0.547142857       1
     0.763983764     0.398376398     0.547142857       1
     0.764082764     0.408276408     0.547142857       1
     0.774081774     0.408177408     0.547142857       1
     0.774180774     0.418077418     0.547142857       1
     0.784179784     0.417978418     0.547142857       1
     0.784278784     0.427878428     0.547142857       1
     0.794277794     0.427779428     0.547142857       1
     0.794376794     0.437679438     0.547142857       1
     0.804375804     0.437580438     0.547142857       1
     0.804474804     0.447480447     0.547142857       1
     0.814473814     0.447381447     0.547142857       1
     0.814572815     0.457281457     0.547142857       1
     0.824571825     0.457182457     0.547142857       1
     0.824670825     0.467082467     0.547142857       1
     0.834669835     0.466983467     0.547142857       1
     0.834768835     0.476883477     0.547142857       1
     0.844767845     0.476784477     0.547142857       1
     0.844866845     0.486684487     0.547142857       1
     0.854865855     0.486585487     0.547142857       1
     0.854964855     0.496485496     0.547142857       1
     0.864963865     0.496386496     0.547142857       1
     0.865062865     0.506286506     0.547142857       1
     0.875061875     0.506187506     0.547142857       1
     0.875160875     0.516087516     0.547142857       1
     0.885159885     0.515988516     0.547142857       1
     0.885258885     0.525888526     0.547142857       1
     0.895257895     0.525789526     0.547142857       1
     0.895356895     0.535689536     0.547142857       1
     0.905355905     0.535590536     0.547142857       1
     0.905454905     0.545490545     0.547142857       1
     0.915453915     0.545391545     0.547142857       1
     0.915552916     0.555291555     0.547142857       1
     0.925551926     0.555192555     0.547142857       1
     0.925650926     0.565092565     0.547142857       1
     0.935649936     0.564993565     0.547142857       1
     0.935748936     0.574893575     0.547142857       1
     0.945747946     0.574794575     0.547142857       1
     0.945846946     0.584694585     0.547142857       1
     0.955845956     0.584595585     0.547142857       1
     0.955944956     0.594495594     0.547142857       1
     0.965943966     0.594396594     0.547142857       1
     0.966042966     0.604296604     0.547142857       1
     0.976041976     0.604197604     0.547142857       1
     0.976140976     0.614097614     0.547142857       1
     0.986139986     0.613998614     0.547142857       1
     0.986238986     0.623898624     0.547142857       1
     0.996237996     0.623799624     0.547142857       1
     0.996336996     0.633699634     0.547142857       1
     0.006336006     0.633600634     0.547142857       1
     0.006435006     0.643500644     0.547142857       1
     0.016434016     0.643401643     0.547142857       1
     0.016533017     0.653301653     0.547142857       1
     0.026532027     0.653202653     0.547142857       1
     0.026631027     0.663102663     0.547142857       1
     0.036630037     0.663003663     0.547142857       1
     0.036729037     0.672903673     0.547142857       1
     0.046728047     0.672804673     0.547142857       1
     0.046827047     0.682704683     0.547142857       1
     0.056826057     0.682605683     0.547142857       1
     0.056925057     0.692505693     0.547142857       1
     0.066924067     0.692406692     0.547142857       1
     0.067023067     0.702306702     0.547142857       1
     0.077022077     0.702207702     0.547142857       1
     0.077121077     0.712107712     0.547142857       1
     0.087120087     0.712008712     0.547142857       1
     0.087219087     0.721908722     0.547142857       1
     0.097218097     0.721809722     0.547142857       1
     0.097317097     0.731709732     0.547142857       1
     0.107316107     0.731610732     0.547142857       1
     0.107415107     0.741510742     0.547142857       1
     0.117414117     0.741411741     0.547142857       1
     0.117513118     0.751311751     0.547142857       1
     0.127512128     0.751212751     0.547142857       1
     0.127611128     0.761112761     0.547142857       1
     0.137610138     0.761013761     0.547142857       1
     0.137709138     0.770913771     0.547142857       1
     0.147708148     0.770814771     0.547142857       1
     0.147807148     0.780714781     0.547142857       1
     0.157806158     0.780615781     0.547142857       1
     0.157905158     0.790515791     0.547142857       1
     0.167904168     0.790416790     0.547142857       1
     0.168003168     0.800316800     0.547142857       1
     0.178002178     0.800217800     0.547142857       1
     0.178101178     0.810117810     0.547142857       1
     0.188100188     0.810018810     0.547142857       1
     0.188199188     0.819918820     0.547142857       1
     0.198198198     0.819819820     0.547142857       1
     0.198297198     0.829719830     0.547142857       1
     0.208296208     0.829620830     0.547142857       1
     0.208395208     0.839520840     0.547142857       1
     0.218394218     0.839421839     0.547142857       1
     0.218493218     0.849321849     0.547142857       1
     0.228492228     0.849222849     0.547142857       1
     0.228591229     0.859122859     0.547142857       1
     0.238590239     0.859023859     0.547142857       1
     0.238689239     0.868923869     0.547142857       1
     0.248688249     0.868824869     0.547142857       1
     0.248787249     0.878724879     0.547142857       1
     0.258786259     0.878625879     0.547142857       1
     0.258885259     0.888525889     0.547142857       1
     0.268884269     0.888426888     0.547142857       1
     0.268983269     0.898326898     0.547142857       1
     0.278982279     0.898227898     0.547142857       1
     0.279081279     0.908127908     0.547142857       1
     0.289080289     0.908028908     0.547142857       1
     0.289179289     0.917928918     0.547142857       1
     0.299178299     0.917829918     0.547142857       1
     0.299277299     0.927729928     0.547142857       1
     0.309276309     0.927630928     0.547142857       1
     0.309375309     0.937530938     0.547142857       1
     0.319374319     0.937431937     0.547142857       1
     0.319473319     0.947331947     0.547142857       1
     0.329472329     0.947232947     0.547142857       1
     0.329571330     0.957132957     0.547142857       1
     0.339570340     0.957033957     0.547142857       1
     0.339669340     0.966933967     0.547142857       1
     0.349668350     0.966834967     0.547142857       1
     0.349767350     0.976734977     0.547142857       1
     0.359766360     0.976635977     0.547142857       1
     0.359865360     0.986535987     0.547142857       1
     0.369864370     0.986436986     0.547142857       1
     0.369963370     0.996336996     0.547142857       1
     0.379962380     0.996237996     0.547142857       1
     0.380061380     0.006138006     0.547142857       1
     0.390060390     0.006039006     0.547142857       1
     0.390159390     0.015939016     0.547142857       1
     0.400158400     0.015840016     0.547142857       1
     0.400257400     0.025740026     0.547142857       1
     0.410256410     0.025641026     0.547142857       1
     0.410355410     0.035541036     0.547142857       1
     0.420354420     0.035442035     0.547142857       1
     0.420453420     0.045342045     0.547142857       1
     0.430452430     0.045243045     0.547142857       1
     0.430551431     0.055143055     0.547142857       1
     0.440550441     0.055044055     0.547142857       1
     0.440649441     0.064944065     0.547142857       1
     0.450648451     0.064845065     0.547142857       1
     0.450747451     0.074745075     0.547142857       1
     0.460746461     0.074646075     0.547142857       1
     0.460845461     0.084546085     0.547142857       1
     0.470844471     0.084447084     0.547142857       1
     0.470943471     0.094347094     0.547142857       1
     0.480942481     0.094248094     0.547142857       1
     0.481041481     0.104148104     0.547142857       1
     0.491040491     0.104049104     0.547142857       1
     0.491139491     0.113949114     0.547142857       1
     0.501138501     0.113850114     0.547142857       1
     0.501237501     0.123750124     0.547142857       1
     0.511236511     0.123651124     0.547142857       1
     0.511335511     0.133551134     0.547142857       1
     0.521334521     0.133452133     0.547142857       1
     0.521433521     0.143352143     0.547142857       1
     0.531432531     0.143253143     0.547142857       1
     0.531531532     0.153153153     0.547142857       1
     0.541530542     0.153054153     0.547142857       1
     0.541629542     0.162954163     0.547142857       1
     0.551628552     0.162855163     0.547142857       1
     0.551727552     0.172755173     0.547142857       1
     0.561726562     0.172656173     0.547142857       1
     0.561825562     0.182556183     0.547142857       1
     0.571824572     0.182457182     0.547142857       1
     0.571923572     0.192357192     0.547142857       1
     0.581922582     0.192258192     0.547142857       1
     0.582021582     0.202158202     0.547142857       1
     0.592020592     0.202059202     0.547142857       1
     0.592119592     0.211959212     0.547142857       1
     0.602118602     0.211860212     0.547142857       1
     0.602217602     0.221760222     0.547142857       1
     0.612216612     0.221661222     0.547142857       1
     0.612315612     0.231561232     0.547142857       1
     0.622314622     0.231462231     0.547142857       1
     0.622413622     0.241362241     0.547142857       1
     0.632412632     0.241263241     0.547142857       1
     0.632511633     0.251163251     0.547142857       1
     0.642510643     0.251064251     0.547142857       1
     0.642609643     0.260964261     0.547142857       1
     0.652608653     0.260865261     0.547142857       1
     0.652707653     0.270765271     0.547142857       1
     0.662706663     0.270666271     0.547142857       1
     0.662805663     0.280566281     0.547142857       1
     0.672804673     0.280467280     0.547142857       1
     0.672903673     0.290367290     0.547142857       1
     0.682902683     0.290268290     0.547142857       1
     0.683001683     0.300168300     0.547142857       1
     0.693000693     0.300069300     0.547142857       1
     0.693099693     0.309969310     0.547142857       1
     0.703098703     0.309870310     0.547142857       1
     0.703197703     0.319770320     0.547142857       1
     0.713196713     0.319671320     0.547142857       1
     0.713295713     0.329571330     0.547142857       1
     0.723294723     0.329472329     0.547142857       1
     0.723393723     0.339372339     0.547142857       1
     0.733392733     0.339273339     0.547142857       1
     0.733491733     0.349173349     0.547142857       1
     0.743490743     0.349074349     0.547142857       1
     0.743589744     0.358974359     0.547142857       1
     0.753588754     0.358875359     0.547142857       1
     0.753687754     0.368775369     0.547142857       1
     0.763686764     0.368676369     0.547142857       1
     0.763785764     0.378576379     0.547142857       1
     0.773784774     0.378477378     0.547142857       1
     0.773883774     0.388377388     0.547142857       1
     0.783882784     0.388278388     0.547142857       1
     0.783981784     0.398178398     0.547142857       1
     0.793980794     0.398079398     0.547142857       1
     0.794079794     0.407979408     0.547142857       1
     0.804078804     0.407880408     0.547142857       1
     0.804177804     0.417780418     0.547142857       1
     0.814176814     0.417681418     0.547142857       1
     0.814275814     0.427581428     0.547142857       1
     0.824274824     0.427482427     0.547142857       1
     0.824373824     0.437382437     0.547142857       1
     0.834372834     0.437283437     0.547142857       1
     0.834471834     0.447183447     0.547142857       1
     0.844470844     0.447084447     0.547142857       1
     0.844569845     0.456984457     0.547142857       1
     0.854568855     0.456885457     0.547142857       1
     0.854667855     0.466785467     0.547142857       1
     0.864666865     0.466686467     0.547142857       1
     0.864765865     0.476586477     0.547142857       1
     0.874764875     0.476487476     0.547142857       1
     0.874863875     0.486387486     0.547142857       1
     0.884862885     0.486288486     0.547142857       1
     0.884961885     0.496188496     0.547142857       1
     0.894960895     0.496089496     0.547142857       1
     0.895059895     0.505989506     0.547142857       1
     0.905058905     0.505890506     0.547142857       1
     0.905157905     0.515790516     0.547142857       1
     0.915156915     0.515691516     0.547142857       1
     0.915255915     0.525591526     0.547142857       1
     0.925254925     0.525492525     0.547142857       1
     0.925353925     0.535392535     0.547142857       1
     0.935352935     0.535293535     0.547142857       1
     0.935451935     0.545193545     0.547142857       1
     0.945450945     0.545094545     0.547142857       1
     0.945549946     0.554994555     0.547142857       1
     0.955548956     0.554895555     0.547142857       1
     0.955647956     0.564795565     0.547142857       1
     0.965646966     0.564696565     0.547142857       1
     0.965745966     0.574596575     0.547142857       1
     0.975744976     0.574497574     0.547142857       1
     0.975843976     0.584397584     0.547142857       1
     0.985842986     0.584298584     0.547142857       1
     0.985941986     0.594198594     0.547142857       1
     0.995940996     0.594099594     0.547142857       1
     0.996039996     0.603999604     0.547142857       1
     0.006039006     0.603900604     0.547142857       1
     0.006138006     0.613800614     0.547142857       1
     0.016137016     0.613701614     0.547142857       1
     0.016236016     0.623601624     0.547142857       1
     0.026235026     0.623502624     0.547142857       1
     0.026334026     0.633402633     0.547142857       1
     0.036333036     0.633303633     0.547142857       1
     0.036432036     0.643203643     0.547142857       1
     0.046431046     0.643104643     0.547142857       1
     0.046530047     0.653004653     0.547142857       1
     0.056529057     0.652905653     0.547142857       1
     0.056628057     0.662805663     0.547142857       1
     0.066627067     0.662706663     0.547142857       1
     0.066726067     0.672606673     0.547142857       1
     0.076725077     0.672507673     0.547142857       1
     0.076824077     0.682407682     0.547142857       1
     0.086823087     0.682308682     0.547142857       1
     0.086922087     0.692208692     0.547142857       1
     0.096921097     0.692109692     0.547142857       1
     0.097020097     0.702009702     0.547142857       1
     0.107019107     0.701910702     0.547142857       1
     0.107118107     0.711810712     0.547142857       1
     0.117117117     0.711711712     0.547142857       1
     0.117216117     0.721611722     0.547142857       1
     0.127215127     0.721512722     0.547142857       1
     0.127314127     0.731412731     0.547142857       1
     0.137313137     0.731313731     0.547142857       1
     0.137412137     0.741213741     0.547142857       1
     0.147411147     0.741114741     0.547142857       1
     0.147510148     0.751014751     0.547142857       1
     0.157509158     0.750915751     0.547142857       1
     0.157608158     0.760815761     0.547142857       1
     0.167607168     0.760716761     0.547142857       1
     0.167706168     0.770616771     0.547142857       1
     0.177705178     0.770517771     0.547142857       1
     0.177804178     0.780417780     0.547142857       1
     0.187803188     0.780318780     0.547142857       1
     0.187902188     0.790218790     0.547142857       1
     0.197901198     0.790119790     0.547142857       1
     0.198000198     0.800019800     0.547142857       1
     0.207999208     0.799920800     0.547142857       1
     0.208098208     0.809820810     0.547142857       1
     0.218097218     0.809721810     0.547142857       1
     0.218196218     0.819621820     0.547142857       1
     0.228195228     0.819522820     0.547142857       1
     0.228294228     0.829422829     0.547142857       1
     0.238293238     0.829323829     0.547142857       1
     0.238392238     0.839223839     0.547142857       1
     0.248391248     0.839124839     0.547142857       1
     0.248490248     0.849024849     0.547142857       1
     0.258489258     0.848925849     0.547142857       1
     0.258588259     0.858825859     0.547142857       1
     0.268587269     0.858726859     0.547142857       1
     0.268686269     0.868626869     0.547142857       1
     0.278685279     0.868527869     0.547142857       1
     0.278784279     0.878427878     0.547142857       1
     0.288783289     0.878328878     0.547142857       1
     0.288882289     0.888228888     0.547142857       1
     0.298881299     0.888129888     0.547142857       1
     0.298980299     0.898029898     0.547142857       1
     0.308979309     0.897930898     0.547142857       1
     0.309078309     0.907830908     0.547142857       1
     0.319077319     0.907731908     0.547142857       1
     0.319176319     0.917631918     0.547142857       1
     0.329175329     0.917532918     0.547142857       1
     0.329274329     0.927432927     0.547142857       1
     0.339273339     0.927333927     0.547142857       1
     0.339372339     0.937233937     0.547142857       1
     0.349371349     0.937134937     0.547142857       1
     0.349470349     0.947034947     0.547142857       1
     0.359469359     0.946935947     0.547142857       1
     0.359568360     0.956835957     0.547142857       1
     0.369567370     0.956736957     0.547142857       1
     0.369666370     0.966636967     0.547142857       1
     0.379665380     0.966537967     0.547142857       1
     0.379764380     0.976437976     0.547142857       1
     0.389763390     0.976338976     0.547142857       1
     0.389862390     0.986238986     0.547142857       1
     0.399861400     0.986139986     0.547142857       1
     0.399960400     0.996039996     0.547142857       1
     0.409959410     0.995940996     0.547142857       1
     0.410058410     0.005841006     0.547142857       1
     0.420057420     0.005742006     0.547142857       1
     0.420156420     0.015642016     0.547142857       1
     0.430155430     0.015543016     0.547142857       1
     0.430254430     0.025443025     0.547142857       1
     0.440253440     0.025344025     0.547142857       1
     0.440352440     0.035244035     0.547142857       1
     0.450351450     0.035145035     0.547142857       1
     0.450450450     0.045045045     0.547142857       1
     0.460449460     0.044946045     0.547142857       1
     0.460548461     0.054846055     0.547142857       1
     0.470547471     0.054747055     0.547142857       1
     0.470646471     0.064647065     0.547142857       1
     0.480645481     0.064548065     0.547142857       1
     0.480744481     0.074448074     0.547142857       1
     0.490743491     0.074349074     0.547142857       1
     0.490842491     0.084249084     0.547142857       1
     0.500841501     0.084150084     0.547142857       1
     0.500940501     0.094050094     0.547142857       1
     0.510939511     0.093951094     0.547142857       1
     0.511038511     0.103851104     0.547142857       1
     0.521037521     0.103752104     0.547142857       1
     0.521136521     0.113652114     0.547142857       1
     0.531135531     0.113553114     0.547142857       1
     0.531234531     0.123453123     0.547142857       1
     0.541233541     0.123354123     0.547142857       1
     0.541332541     0.133254133     0.547142857       1
     0.551331551     0.133155133     0.547142857       1
     0.551430551     0.143055143     0.547142857       1
     0.561429561     0.142956143     0.547142857       1
     0.561528562     0.152856153     0.547142857       1
     0.571527572     0.152757153     0.547142857       1
     0.571626572     0.162657163     0.547142857       1
     0.581625582     0.162558163     0.547142857       1
     0.581724582     0.172458172     0.547142857       1
     0.591723592     0.172359172     0.547142857       1
     0.591822592     0.182259182     0.547142857       1
     0.601821602     0.182160182     0.547142857       1
     0.601920602     0.192060192     0.547142857       1
     0.611919612     0.191961192     0.547142857       1
     0.612018612     0.201861202     0.547142857       1
     0.622017622     0.201762202     0.547142857       1
     0.622116622     0.211662212     0.547142857       1
     0.632115632     0.211563212     0.547142857       1
     0.632214632     0.221463221     0.547142857       1
     0.642213642     0.221364221     0.547142857       1
     0.642312642     0.231264231     0.547142857       1
     0.652311652     0.231165231     0.547142857       1
     0.652410652     0.241065241     0.547142857       1
     0.662409662     0.240966241     0.547142857       1
     0.662508663     0.250866251     0.547142857       1
     0.672507673     0.250767251     0.547142857       1
     0.672606673     0.260667261     0.547142857       1
     0.682605683     0.260568261     0.547142857       1
     0.682704683     0.270468270     0.547142857       1
     0.692703693     0.270369270     0.547142857       1
     0.692802693     0.280269280     0.547142857       1
     0.702801703     0.280170280     0.547142857       1
     0.702900703     0.290070290     0.547142857       1
     0.712899713     0.289971290     0.547142857       1
     0.712998713     0.299871300     0.547142857       1
     0.722997723     0.299772300     0.547142857       1
     0.723096723     0.309672310     0.547142857       1
     0.733095733     0.309573310     0.547142857       1
     0.733194733     0.319473319     0.547142857       1
     0.743193743     0.319374319     0.547142857       1
     0.743292743     0.329274329     0.547142857       1
     0.753291753     0.329175329     0.547142857       1
     0.753390753     0.339075339     0.547142857       1
     0.763389763     0.338976339     0.547142857       1
     0.763488763     0.348876349     0.547142857       1
     0.773487773     0.348777349     0.547142857       1
     0.773586774     0.358677359     0.547142857       1
     0.783585784     0.358578359     0.547142857       1
     0.783684784     0.368478368     0.547142857       1
     0.793683794     0.368379368     0.547142857       1
     0.793782794     0.378279378     0.547142857       1
     0.803781804     0.378180378     0.547142857       1
     0.803880804     0.388080388     0.547142857       1
     0.813879814     0.387981388     0.547142857       1
     0.813978814     0.397881398     0.547142857       1
     0.823977824     0.397782398     0.547142857       1
     0.824076824     0.407682408     0.547142857       1
     0.834075834     0.407583408     0.547142857       1
     0.834174834     0.417483417     0.547142857       1
     0.844173844     0.417384417     0.547142857       1
     0.844272844     0.427284427     0.547142857       1
     0.854271854     0.427185427     0.547142857       1
     0.854370854     0.437085437     0.547142857       1
     0.864369864     0.436986437     0.547142857       1
     0.864468864     0.446886447     0.547142857       1
     0.874467874     0.446787447     0.547142857       1
     0.874566875     0.456687457     0.547142857       1
     0.884565885     0.456588457     0.547142857       1
     0.884664885     0.466488466     0.547142857       1
     0.894663895     0.466389466     0.547142857       1
     0.894762895     0.476289476     0.547142857       1
     0.904761905     0.476190476     0.547142857       1
     0.904860905     0.486090486     0.547142857       1
     0.914859915     0.485991486     0.547142857       1
     0.914958915     0.495891496     0.547142857       1
     0.924957925     0.495792496     0.547142857       1
     0.925056925     0.505692506     0.547142857       1
     0.935055935     0.505593506     0.547142857       1
     0.935154935     0.515493515     0.547142857       1
     0.945153945     0.515394515     0.547142857       1
     0.945252945     0.525294525     0.547142857       1
     0.955251955     0.525195525     0.547142857       1
     0.955350955     0.535095535     0.547142857       1
     0.965349965     0.534996535     0.547142857       1
     0.965448965     0.544896545     0.547142857       1
     0.975447975     0.544797545     0.547142857       1
     0.975546976     0.554697555     0.547142857       1
     0.985545986     0.554598555     0.547142857       1
     0.985644986     0.564498564     0.547142857       1
     0.995643996     0.564399564     0.547142857       1
     0.995742996     0.574299574     0.547142857       1
     0.005742006     0.574200574     0.547142857       1
     0.005841006     0.584100584     0.547142857       1
     0.015840016     0.584001584     0.547142857       1
     0.015939016     0.593901594     0.547142857       1
     0.025938026     0.593802594     0.547142857       1
     0.026037026     0.603702604     0.547142857       1
     0.036036036     0.603603604     0.547142857       1
     0.036135036     0.613503614     0.547142857       1
     0.046134046     0.613404613     0.547142857       1
     0.046233046     0.623304623     0.547142857       1
     0.056232056     0.623205623     0.547142857       1
     0.056331056     0.633105633     0.547142857       1
     0.066330066     0.633006633     0.547142857       1
     0.066429066     0.642906643     0.547142857       1
     0.076428076     0.642807643     0.547142857       1
     0.076527077     0.652707653     0.547142857       1
     0.086526087     0.652608653     0.547142857       1
     0.086625087     0.662508663     0.547142857       1
     0.096624097     0.662409662     0.547142857       1
     0.096723097     0.672309672     0.547142857       1
     0.106722107     0.672210672     0.547142857       1
     0.106821107     0.682110682     0.547142857       1
     0.116820117     0.682011682     0.547142857       1
     0.116919117     0.691911692     0.547142857       1
     0.126918127     0.691812692     0.547142857       1
     0.127017127     0.701712702     0.547142857       1
     0.137016137     0.701613702     0.547142857       1
     0.137115137     0.711513712     0.547142857       1
     0.147114147     0.711414711     0.547142857       1
     0.147213147     0.721314721     0.547142857       1
     0.157212157     0.721215721     0.547142857       1
     0.157311157     0.731115731     0.547142857       1
     0.167310167     0.731016731     0.547142857       1
     0.167409167     0.740916741     0.547142857       1
     0.177408177     0.740817741     0.547142857       1
     0.177507178     0.750717751     0.547142857       1
     0.187506188     0.750618751     0.547142857       1
     0.187605188     0.760518761     0.547142857       1
     0.197604198     0.760419760     0.547142857       1
     0.197703198     0.770319770     0.547142857       1
     0.207702208     0.770220770     0.547142857       1
     0.207801208     0.780120780     0.547142857       1
     0.217800218     0.780021780     0.547142857       1
     0.217899218     0.789921790     0.547142857       1
     0.227898228     0.789822790     0.547142857       1
     0.227997228     0.799722800     0.547142857       1
     0.237996238     0.799623800     0.547142857       1
     0.238095238     0.809523810     0.547142857       1
     0.248094248     0.809424809     0.547142857       1
     0.248193248     0.819324819     0.547142857       1
     0.258192258     0.819225819     0.547142857       1
     0.258291258     0.829125829     0.547142857       1
     0.268290268     0.829026829     0.547142857       1
     0.268389268     0.838926839     0.547142857       1
     0.278388278     0.838827839     0.547142857       1
     0.278487278     0.848727849     0.547142857       1
     0.288486288     0.848628849     0.547142857       1
     0.288585289     0.858528859     0.547142857       1
     0.298584299     0.858429858     0.547142857       1
     0.298683299     0.868329868     0.547142857       1
     0.308682309     0.868230868     0.547142857       1
     0.308781309     0.878130878     0.547142857       1
     0.318780319     0.878031878     0.547142857       1
     0.318879319     0.887931888     0.547142857       1
     0.328878329     0.887832888     0.547142857       1
     0.328977329     0.897732898     0.547142857       1
     0.338976339     0.897633898     0.547142857       1
     0.339075339     0.907533908     0.547142857       1
     0.349074349     0.907434907     0.547142857       1
     0.349173349     0.917334917     0.547142857       1
     0.359172359     0.917235917     0.547142857       1
     0.359271359     0.927135927     0.547142857       1
     0.369270369     0.927036927     0.547142857       1
     0.369369369     0.936936937     0.547142857       1
     0.379368379     0.936837937     0.547142857       1
     0.379467379     0.946737947     0.547142857       1
     0.389466389     0.946638947     0.547142857       1
     0.389565390     0.956538957     0.547142857       1
     0.399564400     0.956439956     0.547142857       1
     0.399663400     0.966339966     0.547142857       1
     0.409662410     0.966240966     0.547142857       1
     0.409761410     0.976140976     0.547142857       1
     0.419760420     0.976041976     0.547142857       1
     0.419859420     0.985941986     0.547142857       1
     0.429858430     0.985842986     0.547142857       1
     0.429957430     0.995742996     0.547142857       1
     0.439956440     0.995643996     0.547142857       1
     0.440055440     0.005544006     0.547142857       1
     0.450054450     0.005445005     0.547142857       1
     0.450153450     0.015345015     0.547142857       1
     0.460152460     0.015246015     0.547142857       1
     0.460251460     0.025146025     0.547142857       1
     0.470250470     0.025047025     0.547142857       1
     0.470349470     0.034947035     0.547142857       1
     0.480348480     0.034848035     0.547142857       1
     0.480447480     0.044748045     0.547142857       1
     0.490446490     0.044649045     0.547142857       1
     0.490545491     0.054549055     0.547142857       1
     0.500544501     0.054450054     0.547142857       1
     0.500643501     0.064350064     0.547142857       1
     0.510642511     0.064251064     0.547142857       1
     0.510741511     0.074151074     0.547142857       1
     0.520740521     0.074052074     0.547142857       1
     0.520839521     0.083952084     0.547142857       1
     0.530838531     0.083853084     0.547142857       1
     0.530937531     0.093753094     0.547142857       1
     0.540936541     0.093654094     0.547142857       1
     0.541035541     0.103554104     0.547142857       1
     0.551034551     0.103455103     0.547142857       1
     0.551133551     0.113355113     0.547142857       1
     0.561132561     0.113256113     0.547142857       1
     0.561231561     0.123156123     0.547142857       1
     0.571230571     0.123057123     0.547142857       1
     0.571329571     0.132957133     0.547142857       1
     0.581328581     0.132858133     0.547142857       1
     0.581427581     0.142758143     0.547142857       1
     0.591426591     0.142659143     0.547142857       1
     0.591525592     0.152559153     0.547142857       1
     0.601524602     0.152460152     0.547142857       1
     0.601623602     0.162360162     0.547142857       1
     0.611622612     0.162261162     0.547142857       1
     0.611721612     0.172161172     0.547142857       1
     0.621720622     0.172062172     0.547142857       1
     0.621819622     0.181962182     0.547142857       1
     0.631818632     0.181863182     0.547142857       1
     0.631917632     0.191763192     0.547142857       1
     0.641916642     0.191664192     0.547142857       1
     0.642015642     0.201564202     0.547142857       1
     0.652014652     0.201465201     0.547142857       1
     0.652113652     0.211365211     0.547142857       1
     0.662112662     0.211266211     0.547142857       1
     0.662211662     0.221166221     0.547142857       1
     0.672210672     0.221067221     0.547142857       1
     0.672309672     0.230967231     0.547142857       1
     0.682308682     0.230868231     0.547142857       1
     0.682407682     0.240768241     0.547142857       1
     0.692406692     0.240669241     0.547142857       1
     0.692505693     0.250569251     0.547142857       1
     0.702504703     0.250470250     0.547142857       1
     0.702603703     0.260370260     0.547142857       1
     0.712602713     0.260271260     0.547142857       1
     0.712701713     0.270171270     0.547142857       1
     0.722700723     0.270072270     0.547142857       1
     0.722799723     0.279972280     0.547142857       1
     0.732798733     0.279873280     0.547142857       1
     0.732897733     0.289773290     0.547142857       1
     0.742896743     0.289674290     0.547142857       1
     0.742995743     0.299574300     0.547142857       1
     0.752994753     0.299475299     0.547142857       1
     0.753093753     0.309375309     0.547142857       1
     0.763092763     0.309276309     0.547142857       1
     0.763191763     0.319176319     0.547142857       1
     0.773190773     0.319077319     0.547142857       1
     0.773289773     0.328977329     0.547142857       1
     0.783288783     0.328878329     0.547142857       1
     0.783387783     0.338778339     0.547142857       1
     0.793386793     0.338679339     0.547142857       1
     0.793485793     0.348579349     0.547142857       1
     0.803484803     0.348480348     0.547142857       1
     0.803583804     0.358380358     0.547142857       1
     0.813582814     0.358281358     0.547142857       1
     0.813681814     0.368181368     0.547142857       1
     0.823680824     0.368082368     0.547142857       1
     0.823779824     0.377982378     0.547142857       1
     0.833778834     0.377883378     0.547142857       1
     0.833877834     0.387783388     0.547142857       1
     0.843876844     0.387684388     0.547142857       1
     0.843975844     0.397584398     0.547142857       1
     0.853974854     0.397485397     0.547142857       1
     0.854073854     0.407385407     0.547142857       1
     0.864072864     0.407286407     0.547142857       1
     0.864171864     0.417186417     0.547142857       1
     0.874170874     0.417087417     0.547142857       1
     0.874269874     0.426987427     0.547142857       1
     0.884268884     0.426888427     0.547142857       1
     0.884367884     0.436788437     0.547142857       1
     0.894366894     0.436689437     0.547142857       1
     0.894465894     0.446589447     0.547142857       1
     0.904464904     0.446490446     0.547142857       1
     0.904563905     0.456390456     0.547142857       1
     0.914562915     0.456291456     0.547142857       1
     0.914661915     0.466191466     0.547142857       1
     0.924660925     0.466092466     0.547142857       1
     0.924759925     0.475992476     0.547142857       1
     0.934758935     0.475893476     0.547142857       1
     0.934857935     0.485793486     0.547142857       1
     0.944856945     0.485694486     0.547142857       1
     0.944955945     0.495594496     0.547142857       1
     0.954954955     0.495495495     0.547142857       1
     0.955053955     0.505395505     0.547142857       1
     0.965052965     0.505296505     0.547142857       1
     0.965151965     0.515196515     0.547142857       1
     0.975150975     0.515097515     0.547142857       1
     0.975249975     0.524997525     0.547142857       1
     0.985248985     0.524898525     0.547142857       1
     0.985347985     0.534798535     0.547142857       1
     0.995346995     0.534699535     0.547142857       1
     0.995445995     0.544599545     0.547142857       1
     0.005445005     0.544500545     0.547142857       1
     0.005544006     0.554400554     0.547142857       1
     0.015543016     0.554301554     0.547142857       1
     0.015642016     0.564201564     0.547142857       1
     0.025641026     0.564102564     0.547142857       1
     0.025740026     0.574002574     0.547142857       1
     0.035739036     0.573903574     0.547142857       1
     0.035838036     0.583803584     0.547142857       1
     0.045837046     0.583704584     0.547142857       1
     0.045936046     0.593604594     0.547142857       1
     0.055935056     0.593505594     0.547142857       1
     0.056034056     0.603405603     0.547142857       1
     0.066033066     0.603306603     0.547142857       1
     0.066132066     0.613206613     0.547142857       1
     0.076131076     0.613107613     0.547142857       1
     0.076230076     0.623007623     0.547142857       1
     0.086229086     0.622908623     0.547142857       1
     0.086328086     0.632808633     0.547142857       1
     0.096327096     0.632709633     0.547142857       1
     0.096426096     0.642609643     0.547142857       1
     0.106425106     0.642510643     0.547142857       1
     0.106524107     0.652410652     0.547142857       1
     0.116523117     0.652311652     0.547142857       1
     0.116622117     0.662211662     0.547142857       1
     0.126621127     0.662112662     0.547142857       1
     0.126720127     0.672012672     0.547142857       1
     0.136719137     0.671913672     0.547142857       1
     0.136818137     0.681813682     0.547142857       1
     0.146817147     0.681714682     0.547142857       1
     0.146916147     0.691614692     0.547142857       1
     0.156915157     0.691515692     0.547142857       1
     0.157014157     0.701415701     0.547142857       1
     0.167013167     0.701316701     0.547142857       1
     0.167112167     0.711216711     0.547142857       1
     0.177111177     0.711117711     0.547142857       1
     0.177210177     0.721017721     0.547142857       1
     0.187209187     0.720918721     0.547142857       1
     0.187308187     0.730818731     0.547142857       1
     0.197307197     0.730719731     0.547142857       1
     0.197406197     0.740619741     0.547142857       1
     0.207405207     0.740520741     0.547142857       1
     0.207504208     0.750420750     0.547142857       1
     0.217503218     0.750321750     0.547142857       1
     0.217602218     0.760221760     0.547142857       1
     0.227601228     0.760122760     0.547142857       1
     0.227700228     0.770022770     0.547142857       1
     0.237699238     0.769923770     0.547142857       1
     0.237798238     0.779823780     0.547142857       1
     0.247797248     0.779724780     0.547142857       1
     0.247896248     0.789624790     0.547142857       1
     0.257895258     0.789525790     0.547142857       1
     0.257994258     0.799425799     0.547142857       1
     0.267993268     0.799326799     0.547142857       1
     0.268092268     0.809226809     0.547142857       1
     0.278091278     0.809127809     0.547142857       1
     0.278190278     0.819027819     0.547142857       1
     0.288189288     0.818928819     0.547142857       1
     0.288288288     0.828828829     0.547142857       1
     0.298287298     0.828729829     0.547142857       1
     0.298386298     0.838629839     0.547142857       1
     0.308385308     0.838530839     0.547142857       1
     0.308484308     0.848430848     0.547142857       1
     0.318483318     0.848331848     0.547142857       1
     0.318582319     0.858231858     0.547142857       1
     0.328581329     0.858132858     0.547142857       1
     0.328680329     0.868032868     0.547142857       1
     0.338679339     0.867933868     0.547142857       1
     0.338778339     0.877833878     0.547142857       1
     0.348777349     0.877734878     0.547142857       1
     0.348876349     0.887634888     0.547142857       1
     0.358875359     0.887535888     0.547142857       1
     0.358974359     0.897435897     0.547142857       1
     0.368973369     0.897336897     0.547142857       1
     0.369072369     0.907236907     0.547142857       1
     0.379071379     0.907137907     0.547142857       1
     0.379170379     0.917037917     0.547142857       1
     0.389169389     0.916938917     0.547142857       1
     0.389268389     0.926838927     0.547142857       1
     0.399267399     0.926739927     0.547142857       1
     0.399366399     0.936639937     0.547142857       1
     0.409365409     0.936540937     0.547142857       1
     0.409464409     0.946440946     0.547142857       1
     0.419463419     0.946341946     0.547142857       1
     0.419562420     0.956241956     0.547142857       1
     0.429561430     0.956142956     0.547142857       1
     0.429660430     0.966042966     0.547142857       1
     0.439659440     0.965943966     0.547142857       1
     0.439758440     0.975843976     0.547142857       1
     0.449757450     0.975744976     0.547142857       1
     0.449856450     0.985644986     0.547142857       1
     0.459855460     0.985545986     0.547142857       1
     0.459954460     0.995445995     0.547142857       1
     0.469953470     0.995346995     0.547142857       1
     0.470052470     0.005247005     0.547142857       1
     0.480051480     0.005148005     0.547142857       1
     0.480150480     0.015048015     0.547142857       1
     0.490149490     0.014949015     0.547142857       1
     0.490248490     0.024849025     0.547142857       1
     0.500247500     0.024750025     0.547142857       1
     0.500346500     0.034650035     0.547142857       1
     0.510345510     0.034551035     0.547142857       1
     0.510444510     0.044451044     0.547142857       1
     0.520443520     0.044352044     0.547142857       1
     0.520542521     0.054252054     0.547142857       1
     0.530541531     0.054153054     0.547142857       1
     0.530640531     0.064053064     0.547142857       1
     0.540639541     0.063954064     0.547142857       1
     0.540738541     0.073854074     0.547142857       1
     0.550737551     0.073755074     0.547142857       1
     0.550836551     0.083655084     0.547142857       1
     0.560835561     0.083556084     0.547142857       1
     0.560934561     0.093456093     0.547142857       1
     0.570933571     0.093357093     0.547142857       1
     0.571032571     0.103257103     0.547142857       1
     0.581031581     0.103158103     0.547142857       1
     0.581130581     0.113058113     0.547142857       1
     0.591129591     0.112959113     0.547142857       1
     0.591228591     0.122859123     0.547142857       1
     0.601227601     0.122760123     0.547142857       1
     0.601326601     0.132660133     0.547142857       1
     0.611325611     0.132561133     0.547142857       1
     0.611424611     0.142461142     0.547142857       1
     0.621423621     0.142362142     0.547142857       1
     0.621522622     0.152262152     0.547142857       1
     0.631521632     0.152163152     0.547142857       1
     0.631620632     0.162063162     0.547142857       1
     0.641619642     0.161964162     0.547142857       1
     0.641718642     0.171864172     0.547142857       1
     0.651717652     0.171765172     0.547142857       1
     0.651816652     0.181665182     0.547142857       1
     0.661815662     0.181566182     0.547142857       1
     0.661914662     0.191466191     0.547142857       1
     0.671913672     0.191367191     0.547142857       1
     0.672012672     0.201267201     0.547142857       1
     0.682011682     0.201168201     0.547142857       1
     0.682110682     0.211068211     0.547142857       1
     0.692109692     0.210969211     0.547142857       1
     0.692208692     0.220869221     0.547142857       1
     0.702207702     0.220770221     0.547142857       1
     0.702306702     0.230670231     0.547142857       1
     0.712305712     0.230571231     0.547142857       1
     0.712404712     0.240471240     0.547142857       1
     0.722403722     0.240372240     0.547142857       1
     0.722502723     0.250272250     0.547142857       1
     0.732501733     0.250173250     0.547142857       1
     0.732600733     0.260073260     0.547142857       1
     0.742599743     0.259974260     0.547142857       1
     0.742698743     0.269874270     0.547142857       1
     0.752697753     0.269775270     0.547142857       1
     0.752796753     0.279675280     0.547142857       1
     0.762795763     0.279576280     0.547142857       1
     0.762894763     0.289476289     0.547142857       1
     0.772893773     0.289377289     0.547142857       1
     0.772992773     0.299277299     0.547142857       1
     0.782991783     0.299178299     0.547142857       1
     0.783090783     0.309078309     0.547142857       1
     0.793089793     0.308979309     0.547142857       1
     0.793188793     0.318879319     0.547142857       1
     0.803187803     0.318780319     0.547142857       1
     0.803286803     0.328680329     0.547142857       1
     0.813285813     0.328581329     0.547142857       1
     0.813384813     0.338481338     0.547142857       1
     0.823383823     0.338382338     0.547142857       1
     0.823482823     0.348282348     0.547142857       1
     0.833481833     0.348183348     0.547142857       1
     0.833580834     0.358083358     0.547142857       1
     0.843579844     0.357984358     0.547142857       1
     0.843678844     0.367884368     0.547142857       1
     0.853677854     0.367785368     0.547142857       1
     0.853776854     0.377685378     0.547142857       1
     0.863775864     0.377586378     0.547142857       1
     0.863874864     0.387486387     0.547142857       1
     0.873873874     0.387387387     0.547142857       1
     0.873972874     0.397287397     0.547142857       1
     0.883971884     0.397188397     0.547142857       1
     0.884070884     0.407088407     0.547142857       1
     0.894069894     0.406989407     0.547142857       1
     0.894168894     0.416889417     0.547142857       1
     0.904167904     0.416790417     0.547142857       1
     0.904266904     0.426690427     0.547142857       1
     0.914265914     0.426591427     0.547142857       1
     0.914364914     0.436491436     0.547142857       1
     0.924363924     0.436392436     0.547142857       1
     0.924462924     0.446292446     0.547142857       1
     0.934461934     0.446193446     0.547142857       1
     0.934560935     0.456093456     0.547142857       1
     0.944559945     0.455994456     0.547142857       1
     0.944658945     0.465894466     0.547142857       1
     0.954657955     0.465795466     0.547142857       1
     0.954756955     0.475695476     0.547142857       1
     0.964755965     0.475596476     0.547142857       1
     0.964854965     0.485496485     0.547142857       1
     0.974853975     0.485397485     0.547142857       1
     0.974952975     0.495297495     0.547142857       1
     0.984951985     0.495198495     0.547142857       1
     0.985050985     0.505098505     0.547142857       1
     0.995049995     0.504999505     0.547142857       1
     0.995148995     0.514899515     0.547142857       1
     0.005148005     0.514800515     0.547142857       1
     0.005247005     0.524700525     0.547142857       1
     0.015246015     0.524601525     0.547142857       1
     0.015345015     0.534501535     0.547142857       1
     0.025344025     0.534402534     0.547142857       1
     0.025443025     0.544302544     0.547142857       1
     0.035442035     0.544203544     0.547142857       1
     0.035541036     0.554103554     0.547142857       1
     0.045540046     0.554004554     0.547142857       1
     0.045639046     0.563904564     0.547142857       1
     0.055638056     0.563805564     0.547142857       1
     0.055737056     0.573705574     0.547142857       1
     0.065736066     0.573606574     0.547142857       1
     0.065835066     0.583506584     0.547142857       1
     0.075834076     0.583407583     0.547142857       1
     0.075933076     0.593307593     0.547142857       1
     0.085932086     0.593208593     0.547142857       1
     0.086031086     0.603108603     0.547142857       1
     0.096030096     0.603009603     0.547142857       1
     0.096129096     0.612909613     0.547142857       1
     0.106128106     0.612810613     0.547142857       1
     0.106227106     0.622710623     0.547142857       1
     0.116226116     0.622611623     0.547142857       1
     0.116325116     0.632511633     0.547142857       1
     0.126324126     0.632412632     0.547142857       1
     0.126423126     0.642312642     0.547142857       1
     0.136422136     0.642213642     0.547142857       1
     0.136521137     0.652113652     0.547142857       1
     0.146520147     0.652014652     0.547142857       1
     0.146619147     0.661914662     0.547142857       1
     0.156618157     0.661815662     0.547142857       1
     0.156717157     0.671715672     0.547142857       1
     0.166716167     0.671616672     0.547142857       1
     0.166815167     0.681516682     0.547142857       1
     0.176814177     0.681417681     0.547142857       1
     0.176913177     0.691317691     0.547142857       1
     0.186912187     0.691218691     0.547142857       1
     0.187011187     0.701118701     0.547142857       1
     0.197010197     0.701019701     0.547142857       1
     0.197109197     0.710919711     0.547142857       1
     0.207108207     0.710820711     0.547142857       1
     0.207207207     0.720720721     0.547142857       1
     0.217206217     0.720621721     0.547142857       1
     0.217305217     0.730521731     0.547142857       1
     0.227304227     0.730422730     0.547142857       1
     0.227403227     0.740322740     0.547142857       1
     0.237402237     0.740223740     0.547142857       1
     0.237501238     0.750123750     0.547142857       1
     0.247500248     0.750024750     0.547142857       1
     0.247599248     0.759924760     0.547142857       1
     0.257598258     0.759825760     0.547142857       1
     0.257697258     0.769725770     0.547142857       1
     0.267696268     0.769626770     0.547142857       1
     0.267795268     0.779526780     0.547142857       1
     0.277794278     0.779427779     0.547142857       1
     0.277893278     0.789327789     0.547142857       1
     0.287892288     0.789228789     0.547142857       1
     0.287991288     0.799128799     0.547142857       1
     0.297990298     0.799029799     0.547142857       1
     0.298089298     0.808929809     0.547142857       1
     0.308088308     0.808830809     0.547142857       1
     0.308187308     0.818730819     0.547142857       1
     0.318186318     0.818631819     0.547142857       1
     0.318285318     0.828531829     0.547142857       1
     0.328284328     0.828432828     0.547142857       1
     0.328383328     0.838332838     0.547142857       1
     0.338382338     0.838233838     0.547142857       1
     0.338481338     0.848133848     0.547142857       1
     0.348480348     0.848034848     0.547142857       1
     0.348579349     0.857934858     0.547142857       1
     0.358578359     0.857835858     0.547142857       1
     0.358677359     0.867735868     0.547142857       1
     0.368676369     0.867636868     0.547142857       1
     0.368775369     0.877536878     0.547142857       1
     0.378774379     0.877437877     0.547142857       1
     0.378873379     0.887337887     0.547142857       1
     0.388872389     0.887238887     0.547142857       1
     0.388971389     0.897138897     0.547142857       1
     0.398970399     0.897039897     0.547142857       1
     0.399069399     0.906939907     0.547142857       1
     0.409068409     0.906840907     0.547142857       1
     0.409167409     0.916740917     0.547142857       1
     0.419166419     0.916641917     0.547142857       1
     0.419265419     0.926541927     0.547142857       1
     0.429264429     0.926442926     0.547142857       1
     0.429363429     0.936342936     0.547142857       1
     0.439362439     0.936243936     0.547142857       1
     0.439461439     0.946143946     0.547142857       1
     0.449460449     0.946044946     0.547142857       1
     0.449559450     0.955944956     0.547142857       1
     0.459558460     0.955845956     0.547142857       1
     0.459657460     0.965745966     0.547142857       1
     0.469656470     0.965646966     0.547142857       1
     0.469755470     0.975546976     0.547142857       1
     0.479754480     0.975447975     0.547142857       1
     0.479853480     0.985347985     0.547142857       1
     0.489852490     0.985248985     0.547142857       1
     0.489951490     0.995148995     0.547142857       1
     0.499950500     0.995049995     0.547142857       1
     0.500049500     0.004950005     0.547142857       1
     0.510048510     0.004851005     0.547142857       1
     0.510147510     0.014751015     0.547142857       1
     0.520146520     0.014652015     0.547142857       1
     0.520245520     0.024552025     0.547142857       1
     0.530244530     0.024453024     0.547142857       1
     0.530343530     0.034353034     0.547142857       1
     0.540342540     0.034254034     0.547142857       1
     0.540441540     0.044154044     0.547142857       1
     0.550440550     0.044055044     0.547142857       1
     0.550539551     0.053955054     0.547142857       1
     0.560538561     0.053856054     0.547142857       1
     0.560637561     0.063756064     0.547142857       1
     0.570636571     0.063657064     0.547142857       1
     0.570735571     0.073557074     0.547142857       1
     0.580734581     0.073458073     0.547142857       1
     0.580833581     0.083358083     0.547142857       1
     0.590832591     0.083259083     0.547142857       1
     0.590931591     0.093159093     0.547142857       1
     0.600930601     0.093060093     0.547142857       1
     0.601029601     0.102960103     0.547142857       1
     0.611028611     0.102861103     0.547142857       1
     0.611127611     0.112761113     0.547142857       1
     0.621126621     0.112662113     0.547142857       1
     0.621225621     0.122562123     0.547142857       1
     0.631224631     0.122463122     0.547142857       1
     0.631323631     0.132363132     0.547142857       1
     0.641322641     0.132264132     0.547142857       1
     0.641421641     0.142164142     0.547142857       1
     0.651420651     0.142065142     0.547142857       1
     0.651519652     0.151965152     0.547142857       1
     0.661518662     0.151866152     0.547142857       1
     0.661617662     0.161766162     0.547142857       1
     0.671616672     0.161667162     0.547142857       1
     0.671715672     0.171567172     0.547142857       1
     0.681714682     0.171468171     0.547142857       1
     0.681813682     0.181368181     0.547142857       1
     0.691812692     0.181269181     0.547142857       1
     0.691911692     0.191169191     0.547142857       1
     0.701910702     0.191070191     0.547142857       1
     0.702009702     0.200970201     0.547142857       1
     0.712008712     0.200871201     0.547142857       1
     0.712107712     0.210771211     0.547142857       1
     0.722106722     0.210672211     0.547142857       1
     0.722205722     0.220572221     0.547142857       1
     0.732204732     0.220473220     0.547142857       1
     0.732303732     0.230373230     0.547142857       1
     0.742302742     0.230274230     0.547142857       1
     0.742401742     0.240174240     0.547142857       1
     0.752400752     0.240075240     0.547142857       1
     0.752499752     0.249975250     0.547142857       1
     0.762498762     0.249876250     0.547142857       1
     0.762597763     0.259776260     0.547142857       1
     0.772596773     0.259677260     0.547142857       1
     0.772695773     0.269577270     0.547142857       1
     0.782694783     0.269478269     0.547142857       1
     0.782793783     0.279378279     0.547142857       1
     0.792792793     0.279279279     0.547142857       1
     0.792891793     0.289179289     0.547142857       1
     0.802890803     0.289080289     0.547142857       1
     0.802989803     0.298980299     0.547142857       1
     0.812988813     0.298881299     0.547142857       1
     0.813087813     0.308781309     0.547142857       1
     0.823086823     0.308682309     0.547142857       1
     0.823185823     0.318582319     0.547142857       1
     0.833184833     0.318483318     0.547142857       1
     0.833283833     0.328383328     0.547142857       1
     0.843282843     0.328284328     0.547142857       1
     0.843381843     0.338184338     0.547142857       1
     0.853380853     0.338085338     0.547142857       1
     0.853479853     0.347985348     0.547142857       1
     0.863478863     0.347886348     0.547142857       1
     0.863577864     0.357786358     0.547142857       1
     0.873576874     0.357687358     0.547142857       1
     0.873675874     0.367587368     0.547142857       1
     0.883674884     0.367488367     0.547142857       1
     0.883773884     0.377388377     0.547142857       1
     0.893772894     0.377289377     0.547142857       1
     0.893871894     0.387189387     0.547142857       1
     0.903870904     0.387090387     0.547142857       1
     0.903969904     0.396990397     0.547142857       1
     0.913968914     0.396891397     0.547142857       1
     0.914067914     0.406791407     0.547142857       1
     0.924066924     0.406692407     0.547142857       1
     0.924165924     0.416592417     0.547142857       1
     0.934164934     0.416493416     0.547142857       1
     0.934263934     0.426393426     0.547142857       1
     0.944262944     0.426294426     0.547142857       1
     0.944361944     0.436194436     0.547142857       1
     0.954360954     0.436095436     0.547142857       1
     0.954459954     0.445995446     0.547142857       1
     0.964458964     0.445896446     0.547142857       1
     0.964557965     0.455796456     0.547142857       1
     0.974556975     0.455697456     0.547142857       1
     0.974655975     0.465597466     0.547142857       1
     0.984654985     0.465498465     0.547142857       1
     0.984753985     0.475398475     0.547142857       1
     0.994752995     0.475299475     0.547142857       1
     0.994851995     0.485199485     0.547142857       1
     0.004851005     0.485100485     0.547142857       1
     0.004950005     0.495000495     0.547142857       1
     0.014949015     0.494901495     0.547142857       1
     0.015048015     0.504801505     0.547142857       1
     0.025047025     0.504702505     0.547142857       1
     0.025146025     0.514602515     0.547142857       1
     0.035145035     0.514503515     0.547142857       1
     0.035244035     0.524403524     0.547142857       1
     0.045243045     0.524304524     0.547142857       1
     0.045342045     0.534204534     0.547142857       1
     0.055341055     0.534105534     0.547142857       1
     0.055440055     0.544005544     0.547142857       1
     0.065439065     0.543906544     0.547142857       1
     0.065538066     0.553806554     0.547142857       1
     0.075537076     0.553707554     0.547142857       1
     0.075636076     0.563607564     0.547142857       1
     0.085635086     0.563508564     0.547142857       1
     0.085734086     0.573408573     0.547142857       1
     0.095733096     0.573309573     0.547142857       1
     0.095832096     0.583209583     0.547142857       1
     0.105831106     0.583110583     0.547142857       1
     0.105930106     0.593010593     0.547142857       1
     0.115929116     0.592911593     0.547142857       1
     0.116028116     0.602811603     0.547142857       1
     0.126027126     0.602712603     0.547142857       1
     0.126126126     0.612612613     0.547142857       1
     0.136125136     0.612513613     0.547142857       1
     0.136224136     0.622413622     0.547142857       1
     0.146223146     0.622314622     0.547142857       1
     0.146322146     0.632214632     0.547142857       1
     0.156321156     0.632115632     0.547142857       1
     0.156420156     0.642015642     0.547142857       1
     0.166419166     0.641916642     0.547142857       1
     0.166518167     0.651816652     0.547142857       1
     0.176517177     0.651717652     0.547142857       1
     0.176616177     0.661617662     0.547142857       1
     0.186615187     0.661518662     0.547142857       1
     0.186714187     0.671418671     0.547142857       1
     0.196713197     0.671319671     0.547142857       1
     0.196812197     0.681219681     0.547142857       1
     0.206811207     0.681120681     0.547142857       1
     0.206910207     0.691020691     0.547142857       1
     0.216909217     0.690921691     0.547142857       1
     0.217008217     0.700821701     0.547142857       1
     0.227007227     0.700722701     0.547142857       1
     0.227106227     0.710622711     0.547142857       1
     0.237105237     0.710523711     0.547142857       1
     0.237204237     0.720423720     0.547142857       1
     0.247203247     0.720324720     0.547142857       1
     0.247302247     0.730224730     0.547142857       1
     0.257301257     0.730125730     0.547142857       1
     0.257400257     0.740025740     0.547142857       1
     0.267399267     0.739926740     0.547142857       1
     0.267498267     0.749826750     0.547142857       1
     0.277497277     0.749727750     0.547142857       1
     0.277596278     0.759627760     0.547142857       1
     0.287595288     0.759528760     0.547142857       1
     0.287694288     0.769428769     0.547142857       1
     0.297693298     0.769329769     0.547142857       1
     0.297792298     0.779229779     0.547142857       1
     0.307791308     0.779130779     0.547142857       1
     0.307890308     0.789030789     0.547142857       1
     0.317889318     0.788931789     0.547142857       1
     0.317988318     0.798831799     0.547142857       1
     0.327987328     0.798732799     0.547142857       1
     0.328086328     0.808632809     0.547142857       1
     0.338085338     0.808533809     0.547142857       1
     0.338184338     0.818433818     0.547142857       1
     0.348183348     0.818334818     0.547142857       1
     0.348282348     0.828234828     0.547142857       1
     0.358281358     0.828135828     0.547142857       1
     0.358380358     0.838035838     0.547142857       1
     0.368379368     0.837936838     0.547142857       1
     0.368478368     0.847836848     0.547142857       1
     0.378477378     0.847737848     0.547142857       1
     0.378576379     0.857637858     0.547142857       1
     0.388575389     0.857538858     0.547142857       1
     0.388674389     0.867438867     0.547142857       1
     0.398673399     0.867339867     0.547142857       1
     0.398772399     0.877239877     0.547142857       1
     0.408771409     0.877140877     0.547142857       1
     0.408870409     0.887040887     0.547142857       1
     0.418869419     0.886941887     0.547142857       1
     0.418968419     0.896841897     0.547142857       1
     0.428967429     0.896742897     0.547142857       1
     0.429066429     0.906642907     0.547142857       1
     0.439065439     0.906543907     0.547142857       1
     0.439164439     0.916443916     0.547142857       1
     0.449163449     0.916344916     0.547142857       1
     0.449262449     0.926244926     0.547142857       1
     0.459261459     0.926145926     0.547142857       1
     0.459360459     0.936045936     0.547142857       1
     0.469359469     0.935946936     0.547142857       1
     0.469458469     0.945846946     0.547142857       1
     0.479457479     0.945747946     0.547142857       1
     0.479556480     0.955647956     0.547142857       1
     0.489555490     0.955548956     0.547142857       1
     0.489654490     0.965448965     0.547142857       1
     0.499653500     0.965349965     0.547142857       1
     0.499752500     0.975249975     0.547142857       1
     0.509751510     0.975150975     0.547142857       1
     0.509850510     0.985050985     0.547142857       1
     0.519849520     0.984951985     0.547142857       1
     0.519948520     0.994851995     0.547142857       1
     0.529947530     0.994752995     0.547142857       1
     0.530046530     0.004653005     0.547142857       1
     0.540045540     0.004554005     0.547142857       1
     0.540144540     0.014454014     0.547142857       1
     0.550143550     0.014355014     0.547142857       1
     0.550242550     0.024255024     0.547142857       1
     0.560241560     0.024156024     0.547142857       1
     0.560340560     0.034056034     0.547142857       1
     0.570339570     0.033957034     0.547142857       1
     0.570438570     0.043857044     0.547142857       1
     0.580437580     0.043758044     0.547142857       1
     0.580536581     0.053658054     0.547142857       1
     0.590535591     0.053559054     0.547142857       1
     0.590634591     0.063459063     0.547142857       1
     0.600633601     0.063360063     0.547142857       1
     0.600732601     0.073260073     0.547142857       1
     0.610731611     0.073161073     0.547142857       1
     0.610830611     0.083061083     0.547142857       1
     0.620829621     0.082962083     0.547142857       1
     0.620928621     0.092862093     0.547142857       1
     0.630927631     0.092763093     0.547142857       1
     0.631026631     0.102663103     0.547142857       1
     0.641025641     0.102564103     0.547142857       1
     0.641124641     0.112464112     0.547142857       1
     0.651123651     0.112365112     0.547142857       1
     0.651222651     0.122265122     0.547142857       1
     0.661221661     0.122166122     0.547142857       1
     0.661320661     0.132066132     0.547142857       1
     0.671319671     0.131967132     0.547142857       1
     0.671418671     0.141867142     0.547142857       1
     0.681417681     0.141768142     0.547142857       1
     0.681516682     0.151668152     0.547142857       1
     0.691515692     0.151569152     0.547142857       1
     0.691614692     0.161469161     0.547142857       1
     0.701613702     0.161370161     0.547142857       1
     0.701712702     0.171270171     0.547142857       1
     0.711711712     0.171171171     0.547142857       1
     0.711810712     0.181071181     0.547142857       1
     0.721809722     0.180972181     0.547142857       1
     0.721908722     0.190872191     0.547142857       1
     0.731907732     0.190773191     0.547142857       1
     0.732006732     0.200673201     0.547142857       1
     0.742005742     0.200574201     0.547142857       1
     0.742104742     0.210474210     0.547142857       1
     0.752103752     0.210375210     0.547142857       1
     0.752202752     0.220275220     0.547142857       1
     0.762201762     0.220176220     0.547142857       1
     0.762300762     0.230076230     0.547142857       1
     0.772299772     0.229977230     0.547142857       1
     0.772398772     0.239877240     0.547142857       1
     0.782397782     0.239778240     0.547142857       1
     0.782496782     0.249678250     0.547142857       1
     0.792495792     0.249579250     0.547142857       1
     0.792594793     0.259479259     0.547142857       1
     0.802593803     0.259380259     0.547142857       1
     0.802692803     0.269280269     0.547142857       1
     0.812691813     0.269181269     0.547142857       1
     0.812790813     0.279081279     0.547142857       1
     0.822789823     0.278982279     0.547142857       1
     0.822888823     0.288882289     0.547142857       1
     0.832887833     0.288783289     0.547142857       1
     0.832986833     0.298683299     0.547142857       1
     0.842985843     0.298584299     0.547142857       1
     0.843084843     0.308484308     0.547142857       1
     0.853083853     0.308385308     0.547142857       1
     0.853182853     0.318285318     0.547142857       1
     0.863181863     0.318186318     0.547142857       1
     0.863280863     0.328086328     0.547142857       1
     0.873279873     0.327987328     0.547142857       1
     0.873378873     0.337887338     0.547142857       1
     0.883377883     0.337788338     0.547142857       1
     0.883476883     0.347688348     0.547142857       1
     0.893475893     0.347589348     0.547142857       1
     0.893574894     0.357489357     0.547142857       1
     0.903573904     0.357390357     0.547142857       1
     0.903672904     0.367290367     0.547142857       1
     0.913671914     0.367191367     0.547142857       1
     0.913770914     0.377091377     0.547142857       1
     0.923769924     0.376992377     0.547142857       1
     0.923868924     0.386892387     0.547142857       1
     0.933867934     0.386793387     0.547142857       1
     0.933966934     0.396693397     0.547142857       1
     0.943965944     0.396594397     0.547142857       1
     0.944064944     0.406494406     0.547142857       1
     0.954063954     0.406395406     0.547142857       1
     0.954162954     0.416295416     0.547142857       1
     0.964161964     0.416196416     0.547142857       1
     0.964260964     0.426096426     0.547142857       1
     0.974259974     0.425997426     0.547142857       1
     0.974358974     0.435897436     0.547142857       1
     0.984357984     0.435798436     0.547142857       1
     0.984456984     0.445698446     0.547142857       1
     0.994455994     0.445599446     0.547142857       1
     0.994554995     0.455499455     0.547142857       1
     0.004554005     0.455400455     0.547142857       1
     0.004653005     0.465300465     0.547142857       1
     0.014652015     0.465201465     0.547142857       1
     0.014751015     0.475101475     0.547142857       1
     0.024750025     0.475002475     0.547142857       1
     0.024849025     0.484902485     0.547142857       1
     0.034848035     0.484803485     0.547142857       1
     0.034947035     0.494703495     0.547142857       1
     0.044946045     0.494604495     0.547142857       1
     0.045045045     0.504504505     0.547142857       1
     0.055044055     0.504405504     0.547142857       1
     0.055143055     0.514305514     0.547142857       1
     0.065142065     0.514206514     0.547142857       1
     0.065241065     0.524106524     0.547142857       1
     0.075240075     0.524007524     0.547142857       1
     0.075339075     0.533907534     0.547142857       1
     0.085338085     0.533808534     0.547142857       1
     0.085437085     0.543708544     0.547142857       1
     0.095436095     0.543609544     0.547142857       1
     0.095535096     0.553509554     0.547142857       1
     0.105534106     0.553410553     0.547142857       1
     0.105633106     0.563310563     0.547142857       1
     0.115632116     0.563211563     0.547142857       1
     0.115731116     0.573111573     0.547142857       1
     0.125730126     0.573012573     0.547142857       1
     0.125829126     0.582912583     0.547142857       1
     0.135828136     0.582813583     0.547142857       1
     0.135927136     0.592713593     0.547142857       1
     0.145926146     0.592614593     0.547142857       1
     0.146025146     0.602514603     0.547142857       1
     0.156024156     0.602415602     0.547142857       1
     0.156123156     0.612315612     0.547142857       1
     0.166122166     0.612216612     0.547142857       1
     0.166221166     0.622116622     0.547142857       1
     0.176220176     0.622017622     0.547142857       1
     0.176319176     0.631917632     0.547142857       1
     0.186318186     0.631818632     0.547142857       1
     0.186417186     0.641718642     0.547142857       1
     0.196416196     0.641619642     0.547142857       1
     0.196515197     0.651519652     0.547142857       1
     0.206514207     0.651420651     0.547142857       1
     0.206613207     0.661320661     0.547142857       1
     0.216612217     0.661221661     0.547142857       1
     0.216711217     0.671121671     0.547142857       1
     0.226710227     0.671022671     0.547142857       1
     0.226809227     0.680922681     0.547142857       1
     0.236808237     0.680823681     0.547142857       1
     0.236907237     0.690723691     0.547142857       1
     0.246906247     0.690624691     0.547142857       1
     0.247005247     0.700524701     0.547142857       1
     0.257004257     0.700425700     0.547142857       1
     0.257103257     0.710325710     0.547142857       1
     0.267102267     0.710226710     0.547142857       1
     0.267201267     0.720126720     0.547142857       1
     0.277200277     0.720027720     0.547142857       1
     0.277299277     0.729927730     0.547142857       1
     0.287298287     0.729828730     0.547142857       1
     0.287397287     0.739728740     0.547142857       1
     0.297396297     0.739629740     0.547142857       1
     0.297495297     0.749529750     0.547142857       1
     0.307494307     0.749430749     0.547142857       1
     0.307593308     0.759330759     0.547142857       1
     0.317592318     0.759231759     0.547142857       1
     0.317691318     0.769131769     0.547142857       1
     0.327690328     0.769032769     0.547142857       1
     0.327789328     0.778932779     0.547142857       1
     0.337788338     0.778833779     0.547142857       1
     0.337887338     0.788733789     0.547142857       1
     0.347886348     0.788634789     0.547142857       1
     0.347985348     0.798534799     0.547142857       1
     0.357984358     0.798435798     0.547142857       1
     0.358083358     0.808335808     0.547142857       1
     0.368082368     0.808236808     0.547142857       1
     0.368181368     0.818136818     0.547142857       1
     0.378180378     0.818037818     0.547142857       1
     0.378279378     0.827937828     0.547142857       1
     0.388278388     0.827838828     0.547142857       1
     0.388377388     0.837738838     0.547142857       1
     0.398376398     0.837639838     0.547142857       1
     0.398475398     0.847539848     0.547142857       1
     0.408474408     0.847440847     0.547142857       1
     0.408573409     0.857340857     0.547142857       1
     0.418572419     0.857241857     0.547142857       1
     0.418671419     0.867141867     0.547142857       1
     0.428670429     0.867042867     0.547142857       1
     0.428769429     0.876942877     0.547142857       1
     0.438768439     0.876843877     0.547142857       1
     0.438867439     0.886743887     0.547142857       1
     0.448866449     0.886644887     0.547142857       1
     0.448965449     0.896544897     0.547142857       1
     0.458964459     0.896445896     0.547142857       1
     0.459063459     0.906345906     0.547142857       1
     0.469062469     0.906246906     0.547142857       1
     0.469161469     0.916146916     0.547142857       1
     0.479160479     0.916047916     0.547142857       1
     0.479259479     0.925947926     0.547142857       1
     0.489258489     0.925848926     0.547142857       1
     0.489357489     0.935748936     0.547142857       1
     0.499356499     0.935649936     0.547142857       1
     0.499455499     0.945549946     0.547142857       1
     0.509454509     0.945450945     0.547142857       1
     0.509553510     0.955350955     0.547142857       1
     0.519552520     0.955251955     0.547142857       1
     0.519651520     0.965151965     0.547142857       1
     0.529650530     0.965052965     0.547142857       1
     0.529749530     0.974952975     0.547142857       1
     0.539748540     0.974853975     0.547142857       1
     0.539847540     0.984753985     0.547142857       1
     0.549846550     0.984654985     0.547142857       1
     0.549945550     0.994554995     0.547142857       1
     0.559944560     0.994455994     0.547142857       1
     0.560043560     0.004356004     0.547142857       1
     0.570042570     0.004257004     0.547142857       1
     0.570141570     0.014157014     0.547142857       1
     0.580140580     0.014058014     0.547142857       1
     0.580239580     0.023958024     0.547142857       1
     0.590238590     0.023859024     0.547142857       1
     0.590337590     0.033759034     0.547142857       1
     0.600336600     0.033660034     0.547142857       1
     0.600435600     0.043560044     0.547142857       1
     0.610434610     0.043461043     0.547142857       1
     0.610533611     0.053361053     0.547142857       1
     0.620532621     0.053262053     0.547142857       1
     0.620631621     0.063162063     0.547142857       1
     0.630630631     0.063063063     0.547142857       1
     0.630729631     0.072963073     0.547142857       1
     0.640728641     0.072864073     0.547142857       1
     0.640827641     0.082764083     0.547142857       1
     0.650826651     0.082665083     0.547142857       1
     0.650925651     0.092565093     0.547142857       1
     0.660924661     0.092466092     0.547142857       1
     0.661023661     0.102366102     0.547142857       1
     0.671022671     0.102267102     0.547142857       1
     0.671121671     0.112167112     0.547142857       1
     0.681120681     0.112068112     0.547142857       1
     0.681219681     0.121968122     0.547142857       1
     0.691218691     0.121869122     0.547142857       1
     0.691317691     0.131769132     0.547142857       1
     0.701316701     0.131670132     0.547142857       1
     0.701415701     0.141570142     0.547142857       1
     0.711414711     0.141471141     0.547142857       1
     0.711513712     0.151371151     0.547142857       1
     0.721512722     0.151272151     0.547142857       1
     0.721611722     0.161172161     0.547142857       1
     0.731610732     0.161073161     0.547142857       1
     0.731709732     0.170973171     0.547142857       1
     0.741708742     0.170874171     0.547142857       1
     0.741807742     0.180774181     0.547142857       1
     0.751806752     0.180675181     0.547142857       1
     0.751905752     0.190575191     0.547142857       1
     0.761904762     0.190476190     0.547142857       1
     0.762003762     0.200376200     0.547142857       1
     0.772002772     0.200277200     0.547142857       1
     0.772101772     0.210177210     0.547142857       1
     0.782100782     0.210078210     0.547142857       1
     0.782199782     0.219978220     0.547142857       1
     0.792198792     0.219879220     0.547142857       1
     0.792297792     0.229779230     0.547142857       1
     0.802296802     0.229680230     0.547142857       1
     0.802395802     0.239580240     0.547142857       1
     0.812394812     0.239481239     0.547142857       1
     0.812493812     0.249381249     0.547142857       1
     0.822492822     0.249282249     0.547142857       1
     0.822591823     0.259182259     0.547142857       1
     0.832590833     0.259083259     0.547142857       1
     0.832689833     0.268983269     0.547142857       1
     0.842688843     0.268884269     0.547142857       1
     0.842787843     0.278784279     0.547142857       1
     0.852786853     0.278685279     0.547142857       1
     0.852885853     0.288585289     0.547142857       1
     0.862884863     0.288486288     0.547142857       1
     0.862983863     0.298386298     0.547142857       1
     0.872982873     0.298287298     0.547142857       1
     0.873081873     0.308187308     0.547142857       1
     0.883080883     0.308088308     0.547142857       1
     0.883179883     0.317988318     0.547142857       1
     0.893178893     0.317889318     0.547142857       1
     0.893277893     0.327789328     0.547142857       1
     0.903276903     0.327690328     0.547142857       1
     0.903375903     0.337590338     0.547142857       1
     0.913374913     0.337491337     0.547142857       1
     0.913473913     0.347391347     0.547142857       1
     0.923472923     0.347292347     0.547142857       1
     0.923571924     0.357192357     0.547142857       1
     0.933570934     0.357093357     0.547142857       1
     0.933669934     0.366993367     0.547142857       1
     0.943668944     0.366894367     0.547142857       1
     0.943767944     0.376794377     0.547142857       1
     0.953766954     0.376695377     0.547142857       1
     0.953865954     0.386595387     0.547142857       1
     0.963864964     0.386496386     0.547142857       1
     0.963963964     0.396396396     0.547142857       1
     0.973962974     0.396297396     0.547142857       1
     0.974061974     0.406197406     0.547142857       1
     0.984060984     0.406098406     0.547142857       1
     0.984159984     0.415998416     0.547142857       1
     0.994158994     0.415899416     0.547142857       1
     0.994257994     0.425799426     0.547142857       1
     0.004257004     0.425700426     0.547142857       1
     0.004356004     0.435600436     0.547142857       1
     0.014355014     0.435501436     0.547142857       1
     0.014454014     0.445401445     0.547142857       1
     0.024453024     0.445302445     0.547142857       1
     0.024552025     0.455202455     0.547142857       1
     0.034551035     0.455103455     0.547142857       1
     0.034650035     0.465003465     0.547142857       1
     0.044649045     0.464904465     0.547142857       1
     0.044748045     0.474804475     0.547142857       1
     0.054747055     0.474705475     0.547142857       1
     0.054846055     0.484605485     0.547142857       1
     0.064845065     0.484506485     0.547142857       1
     0.064944065     0.494406494     0.547142857       1
     0.074943075     0.494307494     0.547142857       1
     0.075042075     0.504207504     0.547142857       1
     0.085041085     0.504108504     0.547142857       1
     0.085140085     0.514008514     0.547142857       1
     0.095139095     0.513909514     0.547142857       1
     0.095238095     0.523809524     0.547142857       1
     0.105237105     0.523710524     0.547142857       1
     0.105336105     0.533610534     0.547142857       1
     0.115335115     0.533511534     0.547142857       1
     0.115434115     0.543411543     0.547142857       1
     0.125433125     0.543312543     0.547142857       1
     0.125532126     0.553212553     0.547142857       1
     0.135531136     0.553113553     0.547142857       1
     0.135630136     0.563013563     0.547142857       1
     0.145629146     0.562914563     0.547142857       1
     0.145728146     0.572814573     0.547142857       1
     0.155727156     0.572715573     0.547142857       1
     0.155826156     0.582615583     0.547142857       1
     0.165825166     0.582516583     0.547142857       1
     0.165924166     0.592416592     0.547142857       1
     0.175923176     0.592317592     0.547142857       1
     0.176022176     0.602217602     0.547142857       1
     0.186021186     0.602118602     0.547142857       1
     0.186120186     0.612018612     0.547142857       1
     0.196119196     0.611919612     0.547142857       1
     0.196218196     0.621819622     0.547142857       1
     0.206217206     0.621720622     0.547142857       1
     0.206316206     0.631620632     0.547142857       1
     0.216315216     0.631521632     0.547142857       1
     0.216414216     0.641421641     0.547142857       1
     0.226413226     0.641322641     0.547142857       1
     0.226512227     0.651222651     0.547142857       1
     0.236511237     0.651123651     0.547142857       1
     0.236610237     0.661023661     0.547142857       1
     0.246609247     0.660924661     0.547142857       1
     0.246708247     0.670824671     0.547142857       1
     0.256707257     0.670725671     0.547142857       1
     0.256806257     0.680625681     0.547142857       1
     0.266805267     0.680526681     0.547142857       1
     0.266904267     0.690426690     0.547142857       1
     0.276903277     0.690327690     0.547142857       1
     0.277002277     0.700227700     0.547142857       1
     0.287001287     0.700128700     0.547142857       1
     0.287100287     0.710028710     0.547142857       1
     0.297099297     0.709929710     0.547142857       1
     0.297198297     0.719829720     0.547142857       1
     0.307197307     0.719730720     0.547142857       1
     0.307296307     0.729630730     0.547142857       1
     0.317295317     0.729531730     0.547142857       1
     0.317394317     0.739431739     0.547142857       1
     0.327393327     0.739332739     0.547142857       1
     0.327492327     0.749232749     0.547142857       1
     0.337491337     0.749133749     0.547142857       1
     0.337590338     0.759033759     0.547142857       1
     0.347589348     0.758934759     0.547142857       1
     0.347688348     0.768834769     0.547142857       1
     0.357687358     0.768735769     0.547142857       1
     0.357786358     0.778635779     0.547142857       1
     0.367785368     0.778536779     0.547142857       1
     0.367884368     0.788436788     0.547142857       1
     0.377883378     0.788337788     0.547142857       1
     0.377982378     0.798237798     0.547142857       1
     0.387981388     0.798138798     0.547142857       1
     0.388080388     0.808038808     0.547142857       1
     0.398079398     0.807939808     0.547142857       1
     0.398178398     0.817839818     0.547142857       1
     0.408177408     0.817740818     0.547142857       1
     0.408276408     0.827640828     0.547142857       1
     0.418275418     0.827541828     0.547142857       1
     0.418374418     0.837441837     0.547142857       1
     0.428373428     0.837342837     0.547142857       1
     0.428472428     0.847242847     0.547142857       1
     0.438471438     0.847143847     0.547142857       1
     0.438570439     0.857043857     0.547142857       1
     0.448569449     0.856944857     0.547142857       1
     0.448668449     0.866844867     0.547142857       1
     0.458667459     0.866745867     0.547142857       1
     0.458766459     0.876645877     0.547142857       1
     0.468765469     0.876546877     0.547142857       1
     0.468864469     0.886446886     0.547142857       1
     0.478863479     0.886347886     0.547142857       1
     0.478962479     0.896247896     0.547142857       1
     0.488961489     0.896148896     0.547142857       1
     0.489060489     0.906048906     0.547142857       1
     0.499059499     0.905949906     0.547142857       1
     0.499158499     0.915849916     0.547142857       1
     0.509157509     0.915750916     0.547142857       1
     0.509256509     0.925650926     0.547142857       1
     0.519255519     0.925551926     0.547142857       1
     0.519354519     0.935451935     0.547142857       1
     0.529353529     0.935352935     0.547142857       1
     0.529452529     0.945252945     0.547142857       1
     0.539451539     0.945153945     0.547142857       1
     0.539550540     0.955053955     0.547142857       1
     0.549549550     0.954954955     0.547142857       1
     0.549648550     0.964854965     0.547142857       1
     0.559647560     0.964755965     0.547142857       1
     0.559746560     0.974655975     0.547142857       1
     0.569745570     0.974556975     0.547142857       1
     0.569844570     0.984456984     0.547142857       1
     0.579843580     0.984357984     0.547142857       1
     0.579942580     0.994257994     0.547142857       1
     0.589941590     0.994158994     0.547142857       1
     0.590040590     0.004059004     0.547142857       1
     0.600039600     0.003960004     0.547142857       1
     0.600138600     0.013860014     0.547142857       1
     0.610137610     0.013761014     0.547142857       1
     0.610236610     0.023661024     0.547142857       1
     0.620235620     0.023562024     0.547142857       1
     0.620334620     0.033462033     0.547142857       1
     0.630333630     0.033363033     0.547142857       1
     0.630432630     0.043263043     0.547142857       1
     0.640431640     0.043164043     0.547142857       1
     0.640530641     0.053064053     0.547142857       1
     0.650529651     0.052965053     0.547142857       1
     0.650628651     0.062865063     0.547142857       1
     0.660627661     0.062766063     0.547142857       1
     0.660726661     0.072666073     0.547142857       1
     0.670725671     0.072567073     0.547142857       1
     0.670824671     0.082467082     0.547142857       1
     0.680823681     0.082368082     0.547142857       1
     0.680922681     0.092268092     0.547142857       1
     0.690921691     0.092169092     0.547142857       1
     0.691020691     0.102069102     0.547142857       1
     0.701019701     0.101970102     0.547142857       1
     0.701118701     0.111870112     0.547142857       1
     0.711117711     0.111771112     0.547142857       1
     0.711216711     0.121671122     0.547142857       1
     0.721215721     0.121572122     0.547142857       1
     0.721314721     0.131472131     0.547142857       1
     0.731313731     0.131373131     0.547142857       1
     0.731412731     0.141273141     0.547142857       1
     0.741411741     0.141174141     0.547142857       1
     0.741510742     0.151074151     0.547142857       1
     0.751509752     0.150975151     0.547142857       1
     0.751608752     0.160875161     0.547142857       1
     0.761607762     0.160776161     0.547142857       1
     0.761706762     0.170676171     0.547142857       1
     0.771705772     0.170577171     0.547142857       1
     0.771804772     0.180477180     0.547142857       1
     0.781803782     0.180378180     0.547142857       1
     0.781902782     0.190278190     0.547142857       1
     0.791901792     0.190179190     0.547142857       1
     0.792000792     0.200079200     0.547142857       1
     0.801999802     0.199980200     0.547142857       1
     0.802098802     0.209880210     0.547142857       1
     0.812097812     0.209781210     0.547142857       1
     0.812196812     0.219681220     0.547142857       1
     0.822195822     0.219582220     0.547142857       1
     0.822294822     0.229482229     0.547142857       1
     0.832293832     0.229383229     0.547142857       1
     0.832392832     0.239283239     0.547142857       1
     0.842391842     0.239184239     0.547142857       1
     0.842490842     0.249084249     0.547142857       1
     0.852489852     0.248985249     0.547142857       1
     0.852588853     0.258885259     0.547142857       1
     0.862587863     0.258786259     0.547142857       1
     0.862686863     0.268686269     0.547142857       1
     0.872685873     0.268587269     0.547142857       1
     0.872784873     0.278487278     0.547142857       1
     0.882783883     0.278388278     0.547142857       1
     0.882882883     0.288288288     0.547142857       1
     0.892881893     0.288189288     0.547142857       1
     0.892980893     0.298089298     0.547142857       1
     0.902979903     0.297990298     0.547142857       1
     0.903078903     0.307890308     0.547142857       1
     0.913077913     0.307791308     0.547142857       1
     0.913176913     0.317691318     0.547142857       1
     0.923175923     0.317592318     0.547142857       1
     0.923274923     0.327492327     0.547142857       1
     0.933273933     0.327393327     0.547142857       1
     0.933372933     0.337293337     0.547142857       1
     0.943371943     0.337194337     0.547142857       1
     0.943470943     0.347094347     0.547142857       1
     0.953469953     0.346995347     0.547142857       1
     0.953568954     0.356895357     0.547142857       1
     0.963567964     0.356796357     0.547142857       1
     0.963666964     0.366696367     0.547142857       1
     0.973665974     0.366597367     0.547142857       1
     0.973764974     0.376497376     0.547142857       1
     0.983763984     0.376398376     0.547142857       1
     0.983862984     0.386298386     0.547142857       1
     0.993861994     0.386199386     0.547142857       1
     0.993960994     0.396099396     0.547142857       1
     0.003960004     0.396000396     0.547142857       1
     0.004059004     0.405900406     0.547142857       1
     0.014058014     0.405801406     0.547142857       1
     0.014157014     0.415701416     0.547142857       1
     0.024156024     0.415602416     0.547142857       1
     0.024255024     0.425502426     0.547142857       1
     0.034254034     0.425403425     0.547142857       1
     0.034353034     0.435303435     0.547142857       1
     0.044352044     0.435204435     0.547142857       1
     0.044451044     0.445104445     0.547142857       1
     0.054450054     0.445005445     0.547142857       1
     0.054549055     0.454905455     0.547142857       1
     0.064548065     0.454806455     0.547142857       1
     0.064647065     0.464706465     0.547142857       1
     0.074646075     0.464607465     0.547142857       1
     0.074745075     0.474507475     0.547142857       1
     0.084744085     0.474408474     0.547142857       1
     0.084843085     0.484308484     0.547142857       1
     0.094842095     0.484209484     0.547142857       1
     0.094941095     0.494109494     0.547142857       1
     0.104940105     0.494010494     0.547142857       1
     0.105039105     0.503910504     0.547142857       1
     0.115038115     0.503811504     0.547142857       1
     0.115137115     0.513711514     0.547142857       1
     0.125136125     0.513612514     0.547142857       1
     0.125235125     0.523512524     0.547142857       1
     0.135234135     0.523413523     0.547142857       1
     0.135333135     0.533313533     0.547142857       1
     0.145332145     0.533214533     0.547142857       1
     0.145431145     0.543114543     0.547142857       1
     0.155430155     0.543015543     0.547142857       1
     0.155529156     0.552915553     0.547142857       1
     0.165528166     0.552816553     0.547142857       1
     0.165627166     0.562716563     0.547142857       1
     0.175626176     0.562617563     0.547142857       1
     0.175725176     0.572517573     0.547142857       1
     0.185724186     0.572418572     0.547142857       1
     0.185823186     0.582318582     0.547142857       1
     0.195822196     0.582219582     0.547142857       1
     0.195921196     0.592119592     0.547142857       1
     0.205920206     0.592020592     0.547142857       1
     0.206019206     0.601920602     0.547142857       1
     0.216018216     0.601821602     0.547142857       1
     0.216117216     0.611721612     0.547142857       1
     0.226116226     0.611622612     0.547142857       1
     0.226215226     0.621522622     0.547142857       1
     0.236214236     0.621423621     0.547142857       1
     0.236313236     0.631323631     0.547142857       1
     0.246312246     0.631224631     0.547142857       1
     0.246411246     0.641124641     0.547142857       1
     0.256410256     0.641025641     0.547142857       1
     0.256509257     0.650925651     0.547142857       1
     0.266508267     0.650826651     0.547142857       1
     0.266607267     0.660726661     0.547142857       1
     0.276606277     0.660627661     0.547142857       1
     0.276705277     0.670527671     0.547142857       1
     0.286704287     0.670428670     0.547142857       1
     0.286803287     0.680328680     0.547142857       1
     0.296802297     0.680229680     0.547142857       1
     0.296901297     0.690129690     0.547142857       1
     0.306900307     0.690030690     0.547142857       1
     0.306999307     0.699930700     0.547142857       1
     0.316998317     0.699831700     0.547142857       1
     0.317097317     0.709731710     0.547142857       1
     0.327096327     0.709632710     0.547142857       1
     0.327195327     0.719532720     0.547142857       1
     0.337194337     0.719433719     0.547142857       1
     0.337293337     0.729333729     0.547142857       1
     0.347292347     0.729234729     0.547142857       1
     0.347391347     0.739134739     0.547142857       1
     0.357390357     0.739035739     0.547142857       1
     0.357489357     0.748935749     0.547142857       1
     0.367488367     0.748836749     0.547142857       1
     0.367587368     0.758736759     0.547142857       1
     0.377586378     0.758637759     0.547142857       1
     0.377685378     0.768537769     0.547142857       1
     0.387684388     0.768438768     0.547142857       1
     0.387783388     0.778338778     0.547142857       1
     0.397782398     0.778239778     0.547142857       1
     0.397881398     0.788139788     0.547142857       1
     0.407880408     0.788040788     0.547142857       1
     0.407979408     0.797940798     0.547142857       1
     0.417978418     0.797841798     0.547142857       1
     0.418077418     0.807741808     0.547142857       1
     0.428076428     0.807642808     0.547142857       1
     0.428175428     0.817542818     0.547142857       1
     0.438174438     0.817443817     0.547142857       1
     0.438273438     0.827343827     0.547142857       1
     0.448272448     0.827244827     0.547142857       1
     0.448371448     0.837144837     0.547142857       1
     0.458370458     0.837045837     0.547142857       1
     0.458469458     0.846945847     0.547142857       1
     0.468468468     0.846846847     0.547142857       1
     0.468567469     0.856746857     0.547142857       1
     0.478566479     0.856647857     0.547142857       1
     0.478665479     0.866547867     0.547142857       1
     0.488664489     0.866448866     0.547142857       1
     0.488763489     0.876348876     0.547142857       1
     0.498762499     0.876249876     0.547142857       1
     0.498861499     0.886149886     0.547142857       1
     0.508860509     0.886050886     0.547142857       1
     0.508959509     0.895950896     0.547142857       1
     0.518958519     0.895851896     0.547142857       1
     0.519057519     0.905751906     0.547142857       1
     0.529056529     0.905652906     0.547142857       1
     0.529155529     0.915552916     0.547142857       1
     0.539154539     0.915453915     0.547142857       1
     0.539253539     0.925353925     0.547142857       1
     0.549252549     0.925254925     0.547142857       1
     0.549351549     0.935154935     0.547142857       1
     0.559350559     0.935055935     0.547142857       1
     0.559449559     0.944955945     0.547142857       1
     0.569448569     0.944856945     0.547142857       1
     0.569547570     0.954756955     0.547142857       1
     0.579546580     0.954657955     0.547142857       1
     0.579645580     0.964557965     0.547142857       1
     0.589644590     0.964458964     0.547142857       1
     0.589743590     0.974358974     0.547142857       1
     0.599742600     0.974259974     0.547142857       1
     0.599841600     0.984159984     0.547142857       1
     0.609840610     0.984060984     0.547142857       1
     0.609939610     0.993960994     0.547142857       1
     0.619938620     0.993861994     0.547142857       1
     0.620037620     0.003762004     0.547142857       1
     0.630036630     0.003663004     0.547142857       1
     0.630135630     0.013563014     0.547142857       1
     0.640134640     0.013464013     0.547142857       1
     0.640233640     0.023364023     0.547142857       1
     0.650232650     0.023265023     0.547142857       1
     0.650331650     0.033165033     0.547142857       1
     0.660330660     0.033066033     0.547142857       1
     0.660429660     0.042966043     0.547142857       1
     0.670428670     0.042867043     0.547142857       1
     0.670527671     0.052767053     0.547142857       1
     0.680526681     0.052668053     0.547142857       1
     0.680625681     0.062568063     0.547142857       1
     0.690624691     0.062469062     0.547142857       1
     0.690723691     0.072369072     0.547142857       1
     0.700722701     0.072270072     0.547142857       1
     0.700821701     0.082170082     0.547142857       1
     0.710820711     0.082071082     0.547142857       1
     0.710919711     0.091971092     0.547142857       1
     0.720918721     0.091872092     0.547142857       1
     0.721017721     0.101772102     0.547142857       1
     0.731016731     0.101673102     0.547142857       1
     0.731115731     0.111573112     0.547142857       1
     0.741114741     0.111474111     0.547142857       1
     0.741213741     0.121374121     0.547142857       1
     0.751212751     0.121275121     0.547142857       1
     0.751311751     0.131175131     0.547142857       1
     0.761310761     0.131076131     0.547142857       1
     0.761409761     0.140976141     0.547142857       1
     0.771408771     0.140877141     0.547142857       1
     0.771507772     0.150777151     0.547142857       1
     0.781506782     0.150678151     0.547142857       1
     0.781605782     0.160578161     0.547142857       1
     0.791604792     0.160479160     0.547142857       1
     0.791703792     0.170379170     0.547142857       1
     0.801702802     0.170280170     0.547142857       1
     0.801801802     0.180180180     0.547142857       1
     0.811800812     0.180081180     0.547142857       1
     0.811899812     0.189981190     0.547142857       1
     0.821898822     0.189882190     0.547142857       1
     0.821997822     0.199782200     0.547142857       1
     0.831996832     0.199683200     0.547142857       1
     0.832095832     0.209583210     0.547142857       1
     0.842094842     0.209484209     0.547142857       1
     0.842193842     0.219384219     0.547142857       1
     0.852192852     0.219285219     0.547142857       1
     0.852291852     0.229185229     0.547142857       1
     0.862290862     0.229086229     0.547142857       1
     0.862389862     0.238986239     0.547142857       1
     0.872388872     0.238887239     0.547142857       1
     0.872487872     0.248787249     0.547142857       1
     0.882486882     0.248688249     0.547142857       1
     0.882585883     0.258588259     0.547142857       1
     0.892584893     0.258489258     0.547142857       1
     0.892683893     0.268389268     0.547142857       1
     0.902682903     0.268290268     0.547142857       1
     0.902781903     0.278190278     0.547142857       1
     0.912780913     0.278091278     0.547142857       1
     0.912879913     0.287991288     0.547142857       1
     0.922878923     0.287892288     0.547142857       1
     0.922977923     0.297792298     0.547142857       1
     0.932976933     0.297693298     0.547142857       1
     0.933075933     0.307593308     0.547142857       1
     0.943074943     0.307494307     0.547142857       1
     0.943173943     0.317394317     0.547142857       1
     0.953172953     0.317295317     0.547142857       1
     0.953271953     0.327195327     0.547142857       1
     0.963270963     0.327096327     0.547142857       1
     0.963369963     0.336996337     0.547142857       1
     0.973368973     0.336897337     0.547142857       1
     0.973467973     0.346797347     0.547142857       1
     0.983466983     0.346698347     0.547142857       1
     0.983565984     0.356598357     0.547142857       1
     0.993564994     0.356499356     0.547142857       1
     0.993663994     0.366399366     0.547142857       1
     0.003663004     0.366300366     0.547142857       1
     0.003762004     0.376200376     0.547142857       1
     0.013761014     0.376101376     0.547142857       1
     0.013860014     0.386001386     0.547142857       1
     0.023859024     0.385902386     0.547142857       1
     0.023958024     0.395802396     0.547142857       1
     0.033957034     0.395703396     0.547142857       1
     0.034056034     0.405603406     0.547142857       1
     0.044055044     0.405504406     0.547142857       1
     0.044154044     0.415404415     0.547142857       1
     0.054153054     0.415305415     0.547142857       1
     0.054252054     0.425205425     0.547142857       1
     0.064251064     0.425106425     0.547142857       1
     0.064350064     0.435006435     0.547142857       1
     0.074349074     0.434907435     0.547142857       1
     0.074448074     0.444807445     0.547142857       1
     0.084447084     0.444708445     0.547142857       1
     0.084546085     0.454608455     0.547142857       1
     0.094545095     0.454509455     0.547142857       1
     0.094644095     0.464409464     0.547142857       1
     0.104643105     0.464310464     0.547142857       1
     0.104742105     0.474210474     0.547142857       1
     0.114741115     0.474111474     0.547142857       1
     0.114840115     0.484011484     0.547142857       1
     0.124839125     0.483912484     0.547142857       1
     0.124938125     0.493812494     0.547142857       1
     0.134937135     0.493713494     0.547142857       1
     0.135036135     0.503613504     0.547142857       1
     0.145035145     0.503514504     0.547142857       1
     0.145134145     0.513414513     0.547142857       1
     0.155133155     0.513315513     0.547142857       1
     0.155232155     0.523215523     0.547142857       1
     0.165231165     0.523116523     0.547142857       1
     0.165330165     0.533016533     0.547142857       1
     0.175329175     0.532917533     0.547142857       1
     0.175428175     0.542817543     0.547142857       1
     0.185427185     0.542718543     0.547142857       1
     0.185526186     0.552618553     0.547142857       1
     0.195525196     0.552519553     0.547142857       1
     0.195624196     0.562419562     0.547142857       1
     0.205623206     0.562320562     0.547142857       1
     0.205722206     0.572220572     0.547142857       1
     0.215721216     0.572121572     0.547142857       1
     0.215820216     0.582021582     0.547142857       1
     0.225819226     0.581922582     0.547142857       1
     0.225918226     0.591822592     0.547142857       1
     0.235917236     0.591723592     0.547142857       1
     0.236016236     0.601623602     0.547142857       1
     0.246015246     0.601524602     0.547142857       1
     0.246114246     0.611424611     0.547142857       1
     0.256113256     0.611325611     0.547142857       1
     0.256212256     0.621225621     0.547142857       1
     0.266211266     0.621126621     0.547142857       1
     0.266310266     0.631026631     0.547142857       1
     0.276309276     0.630927631     0.547142857       1
     0.276408276     0.640827641     0.547142857       1
     0.286407286     0.640728641     0.547142857       1
     0.286506287     0.650628651     0.547142857       1
     0.296505297     0.650529651     0.547142857       1
     0.296604297     0.660429660     0.547142857       1
     0.306603307     0.660330660     0.547142857       1
     0.306702307     0.670230670     0.547142857       1
     0.316701317     0.670131670     0.547142857       1
     0.316800317     0.680031680     0.547142857       1
     0.326799327     0.679932680     0.547142857       1
     0.326898327     0.689832690     0.547142857       1
     0.336897337     0.689733690     0.547142857       1
     0.336996337     0.699633700     0.547142857       1
     0.346995347     0.699534700     0.547142857       1
     0.347094347     0.709434709     0.547142857       1
     0.357093357     0.709335709     0.547142857       1
     0.357192357     0.719235719     0.547142857       1
     0.367191367     0.719136719     0.547142857       1
     0.367290367     0.729036729     0.547142857       1
     0.377289377     0.728937729     0.547142857       1
     0.377388377     0.738837739     0.547142857       1
     0.387387387     0.738738739     0.547142857       1
     0.387486387     0.748638749     0.547142857       1
     0.397485397     0.748539749     0.547142857       1
     0.397584398     0.758439758     0.547142857       1
     0.407583408     0.758340758     0.547142857       1
     0.407682408     0.768240768     0.547142857       1
     0.417681418     0.768141768     0.547142857       1
     0.417780418     0.778041778     0.547142857       1
     0.427779428     0.777942778     0.547142857       1
     0.427878428     0.787842788     0.547142857       1
     0.437877438     0.787743788     0.547142857       1
     0.437976438     0.797643798     0.547142857       1
     0.447975448     0.797544798     0.547142857       1
     0.448074448     0.807444807     0.547142857       1
     0.458073458     0.807345807     0.547142857       1
     0.458172458     0.817245817     0.547142857       1
     0.468171468     0.817146817     0.547142857       1
     0.468270468     0.827046827     0.547142857       1
     0.478269478     0.826947827     0.547142857       1
     0.478368478     0.836847837     0.547142857       1
     0.488367488     0.836748837     0.547142857       1
     0.488466488     0.846648847     0.547142857       1
     0.498465498     0.846549847     0.547142857       1
     0.498564499     0.856449856     0.547142857       1
     0.508563509     0.856350856     0.547142857       1
     0.508662509     0.866250866     0.547142857       1
     0.518661519     0.866151866     0.547142857       1
     0.518760519     0.876051876     0.547142857       1
     0.528759529     0.875952876     0.547142857       1
     0.528858529     0.885852886     0.547142857       1
     0.538857539     0.885753886     0.547142857       1
     0.538956539     0.895653896     0.547142857       1
     0.548955549     0.895554896     0.547142857       1
     0.549054549     0.905454905     0.547142857       1
     0.559053559     0.905355905     0.547142857       1
     0.559152559     0.915255915     0.547142857       1
     0.569151569     0.915156915     0.547142857       1
     0.569250569     0.925056925     0.547142857       1
     0.579249579     0.924957925     0.547142857       1
     0.579348579     0.934857935     0.547142857       1
     0.589347589     0.934758935     0.547142857       1
     0.589446589     0.944658945     0.547142857       1
     0.599445599     0.944559945     0.547142857       1
     0.599544600     0.954459954     0.547142857       1
     0.609543610     0.954360954     0.547142857       1
     0.609642610     0.964260964     0.547142857       1
     0.619641620     0.964161964     0.547142857       1
     0.619740620     0.974061974     0.547142857       1
     0.629739630     0.973962974     0.547142857       1
     0.629838630     0.983862984     0.547142857       1
     0.639837640     0.983763984     0.547142857       1
     0.639936640     0.993663994     0.547142857       1
     0.649935650     0.993564994     0.547142857       1
     0.650034650     0.003465003     0.547142857       1
     0.660033660     0.003366003     0.547142857       1
     0.660132660     0.013266013     0.547142857       1
     0.670131670     0.013167013     0.547142857       1
     0.670230670     0.023067023     0.547142857       1
     0.680229680     0.022968023     0.547142857       1
     0.680328680     0.032868033     0.547142857       1
     0.690327690     0.032769033     0.547142857       1
     0.690426690     0.042669043     0.547142857       1
     0.700425700     0.042570043     0.547142857       1
     0.700524701     0.052470052     0.547142857       1
     0.710523711     0.052371052     0.547142857       1
     0.710622711     0.062271062     0.547142857       1
     0.720621721     0.062172062     0.547142857       1
     0.720720721     0.072072072     0.547142857       1
     0.730719731     0.071973072     0.547142857       1
     0.730818731     0.081873082     0.547142857       1
     0.740817741     0.081774082     0.547142857       1
     0.740916741     0.091674092     0.547142857       1
     0.750915751     0.091575092     0.547142857       1
     0.751014751     0.101475101     0.547142857       1
     0.761013761     0.101376101     0.547142857       1
     0.761112761     0.111276111     0.547142857       1
     0.771111771     0.111177111     0.547142857       1
     0.771210771     0.121077121     0.547142857       1
     0.781209781     0.120978121     0.547142857       1
     0.781308781     0.130878131     0.547142857       1
     0.791307791     0.130779131     0.547142857       1
     0.791406791     0.140679141     0.547142857       1
     0.801405801     0.140580141     0.547142857       1
     0.801504802     0.150480150     0.547142857       1
     0.811503812     0.150381150     0.547142857       1
     0.811602812     0.160281160     0.547142857       1
     0.821601822     0.160182160     0.547142857       1
     0.821700822     0.170082170     0.547142857       1
     0.831699832     0.169983170     0.547142857       1
     0.831798832     0.179883180     0.547142857       1
     0.841797842     0.179784180     0.547142857       1
     0.841896842     0.189684190     0.547142857       1
     0.851895852     0.189585190     0.547142857       1
     0.851994852     0.199485199     0.547142857       1
     0.861993862     0.199386199     0.547142857       1
     0.862092862     0.209286209     0.547142857       1
     0.872091872     0.209187209     0.547142857       1
     0.872190872     0.219087219     0.547142857       1
     0.882189882     0.218988219     0.547142857       1
     0.882288882     0.228888229     0.547142857       1
     0.892287892     0.228789229     0.547142857       1
     0.892386892     0.238689239     0.547142857       1
     0.902385902     0.238590239     0.547142857       1
     0.902484902     0.248490248     0.547142857       1
     0.912483912     0.248391248     0.547142857       1
     0.912582913     0.258291258     0.547142857       1
     0.922581923     0.258192258     0.547142857       1
     0.922680923     0.268092268     0.547142857       1
     0.932679933     0.267993268     0.547142857       1
     0.932778933     0.277893278     0.547142857       1
     0.942777943     0.277794278     0.547142857       1
     0.942876943     0.287694288     0.547142857       1
     0.952875953     0.287595288     0.547142857       1
     0.952974953     0.297495297     0.547142857       1
     0.962973963     0.297396297     0.547142857       1
     0.963072963     0.307296307     0.547142857       1
     0.973071973     0.307197307     0.547142857       1
     0.973170973     0.317097317     0.547142857       1
     0.983169983     0.316998317     0.547142857       1
     0.983268983     0.326898327     0.547142857       1
     0.993267993     0.326799327     0.547142857       1
     0.993366993     0.336699337     0.547142857       1
     0.003366003     0.336600337     0.547142857       1
     0.003465003     0.346500347     0.547142857       1
     0.013464013     0.346401346     0.547142857       1
     0.013563014     0.356301356     0.547142857       1
     0.023562024     0.356202356     0.547142857       1
     0.023661024     0.366102366     0.547142857       1
     0.033660034     0.366003366     0.547142857       1
     0.033759034     0.375903376     0.547142857       1
     0.043758044     0.375804376     0.547142857       1
     0.043857044     0.385704386     0.547142857       1
     0.053856054     0.385605386     0.547142857       1
     0.053955054     0.395505396     0.547142857       1
     0.063954064     0.395406395     0.547142857       1
     0.064053064     0.405306405     0.547142857       1
     0.074052074     0.405207405     0.547142857       1
     0.074151074     0.415107415     0.547142857       1
     0.084150084     0.415008415     0.547142857       1
     0.084249084     0.424908425     0.547142857       1
     0.094248094     0.424809425     0.547142857       1
     0.094347094     0.434709435     0.547142857       1
     0.104346104     0.434610435     0.547142857       1
     0.104445104     0.444510445     0.547142857       1
     0.114444114     0.444411444     0.547142857       1
     0.114543115     0.454311454     0.547142857       1
     0.124542125     0.454212454     0.547142857       1
     0.124641125     0.464112464     0.547142857       1
     0.134640135     0.464013464     0.547142857       1
     0.134739135     0.473913474     0.547142857       1
     0.144738145     0.473814474     0.547142857       1
     0.144837145     0.483714484     0.547142857       1
     0.154836155     0.483615484     0.547142857       1
     0.154935155     0.493515494     0.547142857       1
     0.164934165     0.493416493     0.547142857       1
     0.165033165     0.503316503     0.547142857       1
     0.175032175     0.503217503     0.547142857       1
     0.175131175     0.513117513     0.547142857       1
     0.185130185     0.513018513     0.547142857       1
     0.185229185     0.522918523     0.547142857       1
     0.195228195     0.522819523     0.547142857       1
     0.195327195     0.532719533     0.547142857       1
     0.205326205     0.532620533     0.547142857       1
     0.205425205     0.542520543     0.547142857       1
     0.215424215     0.542421542     0.547142857       1
     0.215523216     0.552321552     0.547142857       1
     0.225522226     0.552222552     0.547142857       1
     0.225621226     0.562122562     0.547142857       1
     0.235620236     0.562023562     0.547142857       1
     0.235719236     0.571923572     0.547142857       1
     0.245718246     0.571824572     0.547142857       1
     0.245817246     0.581724582     0.547142857       1
     0.255816256     0.581625582     0.547142857       1
     0.255915256     0.591525592     0.547142857       1
     0.265914266     0.591426591     0.547142857       1
     0.266013266     0.601326601     0.547142857       1
     0.276012276     0.601227601     0.547142857       1
     0.276111276     0.611127611     0.547142857       1
     0.286110286     0.611028611     0.547142857       1
     0.286209286     0.620928621     0.547142857       1
     0.296208296     0.620829621     0.547142857       1
     0.296307296     0.630729631     0.547142857       1
     0.306306306     0.630630631     0.547142857       1
     0.306405306     0.640530641     0.547142857       1
     0.316404316     0.640431640     0.547142857       1
     0.316503317     0.650331650     0.547142857       1
     0.326502327     0.650232650     0.547142857       1
     0.326601327     0.660132660     0.547142857       1
     0.336600337     0.660033660     0.547142857       1
     0.336699337     0.669933670     0.547142857       1
     0.346698347     0.669834670     0.547142857       1
     0.346797347     0.679734680     0.547142857       1
     0.356796357     0.679635680     0.547142857       1
     0.356895357     0.689535690     0.547142857       1
     0.366894367     0.689436689     0.547142857       1
     0.366993367     0.699336699     0.547142857       1
     0.376992377     0.699237699     0.547142857       1
     0.377091377     0.709137709     0.547142857       1
     0.387090387     0.709038709     0.547142857       1
     0.387189387     0.718938719     0.547142857       1
     0.397188397     0.718839719     0.547142857       1
     0.397287397     0.728739729     0.547142857       1
     0.407286407     0.728640729     0.547142857       1
     0.407385407     0.738540739     0.547142857       1
     0.417384417     0.738441738     0.547142857       1
     0.417483417     0.748341748     0.547142857       1
     0.427482427     0.748242748     0.547142857       1
     0.427581428     0.758142758     0.547142857       1
     0.437580438     0.758043758     0.547142857       1
     0.437679438     0.767943768     0.547142857       1
     0.447678448     0.767844768     0.547142857       1
     0.447777448     0.777744778     0.547142857       1
     0.457776458     0.777645778     0.547142857       1
     0.457875458     0.787545788     0.547142857       1
     0.467874468     0.787446787     0.547142857       1
     0.467973468     0.797346797     0.547142857       1
     0.477972478     0.797247797     0.547142857       1
     0.478071478     0.807147807     0.547142857       1
     0.488070488     0.807048807     0.547142857       1
     0.488169488     0.816948817     0.547142857       1
     0.498168498     0.816849817     0.547142857       1
     0.498267498     0.826749827     0.547142857       1
     0.508266508     0.826650827     0.547142857       1
     0.508365508     0.836550837     0.547142857       1
     0.518364518     0.836451836     0.547142857       1
     0.518463518     0.846351846     0.547142857       1
     0.528462528     0.846252846     0.547142857       1
     0.528561529     0.856152856     0.547142857       1
     0.538560539     0.856053856     0.547142857       1
     0.538659539     0.865953866     0.547142857       1
     0.548658549     0.865854866     0.547142857       1
     0.548757549     0.875754876     0.547142857       1
     0.558756559     0.875655876     0.547142857       1
     0.558855559     0.885555886     0.547142857       1
     0.568854569     0.885456885     0.547142857       1
     0.568953569     0.895356895     0.547142857       1
     0.578952579     0.895257895     0.547142857       1
     0.579051579     0.905157905     0.547142857       1
     0.589050589     0.905058905     0.547142857       1
     0.589149589     0.914958915     0.547142857       1
     0.599148599     0.914859915     0.547142857       1
     0.599247599     0.924759925     0.547142857       1
     0.609246609     0.924660925     0.547142857       1
     0.609345609     0.934560935     0.547142857       1
     0.619344619     0.934461934     0.547142857       1
     0.619443619     0.944361944     0.547142857       1
     0.629442629     0.944262944     0.547142857       1
     0.629541630     0.954162954     0.547142857       1
     0.639540640     0.954063954     0.547142857       1
     0.639639640     0.963963964     0.547142857       1
     0.649638650     0.963864964     0.547142857       1
     0.649737650     0.973764974     0.547142857       1
     0.659736660     0.973665974     0.547142857       1
     0.659835660     0.983565984     0.547142857       1
     0.669834670     0.983466983     0.547142857       1
     0.669933670     0.993366993     0.547142857       1
     0.679932680     0.993267993     0.547142857       1
     0.680031680     0.003168003     0.547142857       1
     0.690030690     0.003069003     0.547142857       1
     0.690129690     0.012969013     0.547142857       1
     0.700128700     0.012870013     0.547142857       1
     0.700227700     0.022770023     0.547142857       1
     0.710226710     0.022671023     0.547142857       1
     0.710325710     0.032571033     0.547142857       1
     0.720324720     0.032472032     0.547142857       1
     0.720423720     0.042372042     0.547142857       1
     0.730422730     0.042273042     0.547142857       1
     0.730521731     0.052173052     0.547142857       1
     0.740520741     0.052074052     0.547142857       1
     0.740619741     0.061974062     0.547142857       1
     0.750618751     0.061875062     0.547142857       1
     0.750717751     0.071775072     0.547142857       1
     0.760716761     0.071676072     0.547142857       1
     0.760815761     0.081576082     0.547142857       1
     0.770814771     0.081477081     0.547142857       1
     0.770913771     0.091377091     0.547142857       1
     0.780912781     0.091278091     0.547142857       1
     0.781011781     0.101178101     0.547142857       1
     0.791010791     0.101079101     0.547142857       1
     0.791109791     0.110979111     0.547142857       1
     0.801108801     0.110880111     0.547142857       1
     0.801207801     0.120780121     0.547142857       1
     0.811206811     0.120681121     0.547142857       1
     0.811305811     0.130581131     0.547142857       1
     0.821304821     0.130482130     0.547142857       1
     0.821403821     0.140382140     0.547142857       1
     0.831402831     0.140283140     0.547142857       1
     0.831501832     0.150183150     0.547142857       1
     0.841500842     0.150084150     0.547142857       1
     0.841599842     0.159984160     0.547142857       1
     0.851598852     0.159885160     0.547142857       1
     0.851697852     0.169785170     0.547142857       1
     0.861696862     0.169686170     0.547142857       1
     0.861795862     0.179586180     0.547142857       1
     0.871794872     0.179487179     0.547142857       1
     0.871893872     0.189387189     0.547142857       1
     0.881892882     0.189288189     0.547142857       1
     0.881991882     0.199188199     0.547142857       1
     0.891990892     0.199089199     0.547142857       1
     0.892089892     0.208989209     0.547142857       1
     0.902088902     0.208890209     0.547142857       1
     0.902187902     0.218790219     0.547142857       1
     0.912186912     0.218691219     0.547142857       1
     0.912285912     0.228591229     0.547142857       1
     0.922284922     0.228492228     0.547142857       1
     0.922383922     0.238392238     0.547142857       1
     0.932382932     0.238293238     0.547142857       1
     0.932481932     0.248193248     0.547142857       1
     0.942480942     0.248094248     0.547142857       1
     0.942579943     0.257994258     0.547142857       1
     0.952578953     0.257895258     0.547142857       1
     0.952677953     0.267795268     0.547142857       1
     0.962676963     0.267696268     0.547142857       1
     0.962775963     0.277596278     0.547142857       1
     0.972774973     0.277497277     0.547142857       1
     0.972873973     0.287397287     0.547142857       1
     0.982872983     0.287298287     0.547142857       1
     0.982971983     0.297198297     0.547142857       1
     0.992970993     0.297099297     0.547142857       1
     0.993069993     0.306999307     0.547142857       1
     0.003069003     0.306900307     0.547142857       1
     0.003168003     0.316800317     0.547142857       1
     0.013167013     0.316701317     0.547142857       1
     0.013266013     0.326601327     0.547142857       1
     0.023265023     0.326502327     0.547142857       1
     0.023364023     0.336402336     0.547142857       1
     0.033363033     0.336303336     0.547142857       1
     0.033462033     0.346203346     0.547142857       1
     0.043461043     0.346104346     0.547142857       1
     0.043560044     0.356004356     0.547142857       1
     0.053559054     0.355905356     0.547142857       1
     0.053658054     0.365805366     0.547142857       1
     0.063657064     0.365706366     0.547142857       1
     0.063756064     0.375606376     0.547142857       1
     0.073755074     0.375507376     0.547142857       1
     0.073854074     0.385407385     0.547142857       1
     0.083853084     0.385308385     0.547142857       1
     0.083952084     0.395208395     0.547142857       1
     0.093951094     0.395109395     0.547142857       1
     0.094050094     0.405009405     0.547142857       1
     0.104049104     0.404910405     0.547142857       1
     0.104148104     0.414810415     0.547142857       1
     0.114147114     0.414711415     0.547142857       1
     0.114246114     0.424611425     0.547142857       1
     0.124245124     0.424512425     0.547142857       1
     0.124344124     0.434412434     0.547142857       1
     0.134343134     0.434313434     0.547142857       1
     0.134442134     0.444213444     0.547142857       1
     0.144441144     0.444114444     0.547142857       1
     0.144540145     0.454014454     0.547142857       1
     0.154539155     0.453915454     0.547142857       1
     0.154638155     0.463815464     0.547142857       1
     0.164637165     0.463716464     0.547142857       1
     0.164736165     0.473616474     0.547142857       1
     0.174735175     0.473517474     0.547142857       1
     0.174834175     0.483417483     0.547142857       1
     0.184833185     0.483318483     0.547142857       1
     0.184932185     0.493218493     0.547142857       1
     0.194931195     0.493119493     0.547142857       1
     0.195030195     0.503019503     0.547142857       1
     0.205029205     0.502920503     0.547142857       1
     0.205128205     0.512820513     0.547142857       1
     0.215127215     0.512721513     0.547142857       1
     0.215226215     0.522621523     0.547142857       1
     0.225225225     0.522522523     0.547142857       1
     0.225324225     0.532422532     0.547142857       1
     0.235323235     0.532323532     0.547142857       1
     0.235422235     0.542223542     0.547142857       1
     0.245421245     0.542124542     0.547142857       1
     0.245520246     0.552024552     0.547142857       1
     0.255519256     0.551925552     0.547142857       1
     0.255618256     0.561825562     0.547142857       1
     0.265617266     0.561726562     0.547142857       1
     0.265716266     0.571626572     0.547142857       1
     0.275715276     0.571527572     0.547142857       1
     0.275814276     0.581427581     0.547142857       1
     0.285813286     0.581328581     0.547142857       1
     0.285912286     0.591228591     0.547142857       1
     0.295911296     0.591129591     0.547142857       1
     0.296010296     0.601029601     0.547142857       1
     0.306009306     0.600930601     0.547142857       1
     0.306108306     0.610830611     0.547142857       1
     0.316107316     0.610731611     0.547142857       1
     0.316206316     0.620631621     0.547142857       1
     0.326205326     0.620532621     0.547142857       1
     0.326304326     0.630432630     0.547142857       1
     0.336303336     0.630333630     0.547142857       1
     0.336402336     0.640233640     0.547142857       1
     0.346401346     0.640134640     0.547142857       1
     0.346500347     0.650034650     0.547142857       1
     0.356499356     0.649935650     0.547142857       1
     0.356598357     0.659835660     0.547142857       1
     0.366597367     0.659736660     0.547142857       1
     0.366696367     0.669636670     0.547142857       1
     0.376695377     0.669537670     0.547142857       1
     0.376794377     0.679437679     0.547142857       1
     0.386793387     0.679338679     0.547142857       1
     0.386892387     0.689238689     0.547142857       1
     0.396891397     0.689139689     0.547142857       1
     0.396990397     0.699039699     0.547142857       1
     0.406989407     0.698940699     0.547142857       1
     0.407088407     0.708840709     0.547142857       1
     0.417087417     0.708741709     0.547142857       1
     0.417186417     0.718641719     0.547142857       1
     0.427185427     0.718542719     0.547142857       1
     0.427284427     0.728442728     0.547142857       1
     0.437283437     0.728343728     0.547142857       1
     0.437382437     0.738243738     0.547142857       1
     0.447381447     0.738144738     0.547142857       1
     0.447480447     0.748044748     0.547142857       1
     0.457479457     0.747945748     0.547142857       1
     0.457578458     0.757845758     0.547142857       1
     0.467577468     0.757746758     0.547142857       1
     0.467676468     0.767646768     0.547142857       1
     0.477675478     0.767547768     0.547142857       1
     0.477774478     0.777447777     0.547142857       1
     0.487773488     0.777348777     0.547142857       1
     0.487872488     0.787248787     0.547142857       1
     0.497871498     0.787149787     0.547142857       1
     0.497970498     0.797049797     0.547142857       1
     0.507969508     0.796950797     0.547142857       1
     0.508068508     0.806850807     0.547142857       1
     0.518067518     0.806751807     0.547142857       1
     0.518166518     0.816651817     0.547142857       1
     0.528165528     0.816552817     0.547142857       1
     0.528264528     0.826452826     0.547142857       1
     0.538263538     0.826353826     0.547142857       1
     0.538362538     0.836253836     0.547142857       1
     0.548361548     0.836154836     0.547142857       1
     0.548460548     0.846054846     0.547142857       1
     0.558459558     0.845955846     0.547142857       1
     0.558558559     0.855855856     0.547142857       1
     0.568557569     0.855756856     0.547142857       1
     0.568656569     0.865656866     0.547142857       1
     0.578655579     0.865557866     0.547142857       1
     0.578754579     0.875457875     0.547142857       1
     0.588753589     0.875358875     0.547142857       1
     0.588852589     0.885258885     0.547142857       1
     0.598851599     0.885159885     0.547142857       1
     0.598950599     0.895059895     0.547142857       1
     0.608949609     0.894960895     0.547142857       1
     0.609048609     0.904860905     0.547142857       1
     0.619047619     0.904761905     0.547142857       1
     0.619146619     0.914661915     0.547142857       1
     0.629145629     0.914562915     0.547142857       1
     0.629244629     0.924462924     0.547142857       1
     0.639243639     0.924363924     0.547142857       1
     0.639342639     0.934263934     0.547142857       1
     0.649341649     0.934164934     0.547142857       1
     0.649440649     0.944064944     0.547142857       1
     0.659439659     0.943965944     0.547142857       1
     0.659538660     0.953865954     0.547142857       1
     0.669537670     0.953766954     0.547142857       1
     0.669636670     0.963666964     0.547142857       1
     0.679635680     0.963567964     0.547142857       1
     0.679734680     0.973467973     0.547142857       1
     0.689733690     0.973368973     0.547142857       1
     0.689832690     0.983268983     0.547142857       1
     0.699831700     0.983169983     0.547142857       1
     0.699930700     0.993069993     0.547142857       1
     0.709929710     0.992970993     0.547142857       1
     0.710028710     0.002871003     0.547142857       1
     0.720027720     0.002772003     0.547142857       1
     0.720126720     0.012672013     0.547142857       1
     0.730125730     0.012573013     0.547142857       1
     0.730224730     0.022473022     0.547142857       1
     0.740223740     0.022374022     0.547142857       1
     0.740322740     0.032274032     0.547142857       1
     0.750321750     0.032175032     0.547142857       1
     0.750420750     0.042075042     0.547142857       1
     0.760419760     0.041976042     0.547142857       1
     0.760518761     0.051876052     0.547142857       1
     0.770517771     0.051777052     0.547142857       1
     0.770616771     0.061677062     0.547142857       1
     0.780615781     0.061578062     0.547142857       1
     0.780714781     0.071478071     0.547142857       1
     0.790713791     0.071379071     0.547142857       1
     0.790812791     0.081279081     0.547142857       1
     0.800811801     0.081180081     0.547142857       1
     0.800910801     0.091080091     0.547142857       1
     0.810909811     0.090981091     0.547142857       1
     0.811008811     0.100881101     0.547142857       1
     0.821007821     0.100782101     0.547142857       1
     0.821106821     0.110682111     0.547142857       1
     0.831105831     0.110583111     0.547142857       1
     0.831204831     0.120483120     0.547142857       1
     0.841203841     0.120384120     0.547142857       1
     0.841302841     0.130284130     0.547142857       1
     0.851301851     0.130185130     0.547142857       1
     0.851400851     0.140085140     0.547142857       1
     0.861399861     0.139986140     0.547142857       1
     0.861498861     0.149886150     0.547142857       1
     0.871497871     0.149787150     0.547142857       1
     0.871596872     0.159687160     0.547142857       1
     0.881595882     0.159588160     0.547142857       1
     0.881694882     0.169488169     0.547142857       1
     0.891693892     0.169389169     0.547142857       1
     0.891792892     0.179289179     0.547142857       1
     0.901791902     0.179190179     0.547142857       1
     0.901890902     0.189090189     0.547142857       1
     0.911889912     0.188991189     0.547142857       1
     0.911988912     0.198891199     0.547142857       1
     0.921987922     0.198792199     0.547142857       1
     0.922086922     0.208692209     0.547142857       1
     0.932085932     0.208593209     0.547142857       1
     0.932184932     0.218493218     0.547142857       1
     0.942183942     0.218394218     0.547142857       1
     0.942282942     0.228294228     0.547142857       1
     0.952281952     0.228195228     0.547142857       1
     0.952380952     0.238095238     0.547142857       1
     0.962379962     0.237996238     0.547142857       1
     0.962478962     0.247896248     0.547142857       1
     0.972477972     0.247797248     0.547142857       1
     0.972576973     0.257697258     0.547142857       1
     0.982575983     0.257598258     0.547142857       1
     0.982674983     0.267498267     0.547142857       1
     0.992673993     0.267399267     0.547142857       1
     0.992772993     0.277299277     0.547142857       1
     0.002772003     0.277200277     0.547142857       1
     0.002871003     0.287100287     0.547142857       1
     0.012870013     0.287001287     0.547142857       1
     0.012969013     0.296901297     0.547142857       1
     0.022968023     0.296802297     0.547142857       1
     0.023067023     0.306702307     0.547142857       1
     0.033066033     0.306603307     0.547142857       1
     0.033165033     0.316503317     0.547142857       1
     0.043164043     0.316404316     0.547142857       1
     0.043263043     0.326304326     0.547142857       1
     0.053262053     0.326205326     0.547142857       1
     0.053361053     0.336105336     0.547142857       1
     0.063360063     0.336006336     0.547142857       1
     0.063459063     0.345906346     0.547142857       1
     0.073458073     0.345807346     0.547142857       1
     0.073557074     0.355707356     0.547142857       1
     0.083556084     0.355608356     0.547142857       1
     0.083655084     0.365508366     0.547142857       1
     0.093654094     0.365409365     0.547142857       1
     0.093753094     0.375309375     0.547142857       1
     0.103752104     0.375210375     0.547142857       1
     0.103851104     0.385110385     0.547142857       1
     0.113850114     0.385011385     0.547142857       1
     0.113949114     0.394911395     0.547142857       1
     0.123948124     0.394812395     0.547142857       1
     0.124047124     0.404712405     0.547142857       1
     0.134046134     0.404613405     0.547142857       1
     0.134145134     0.414513415     0.547142857       1
     0.144144144     0.414414414     0.547142857       1
     0.144243144     0.424314424     0.547142857       1
     0.154242154     0.424215424     0.547142857       1
     0.154341154     0.434115434     0.547142857       1
     0.164340164     0.434016434     0.547142857       1
     0.164439164     0.443916444     0.547142857       1
     0.174438174     0.443817444     0.547142857       1
     0.174537175     0.453717454     0.547142857       1
     0.184536185     0.453618454     0.547142857       1
     0.184635185     0.463518464     0.547142857       1
     0.194634195     0.463419463     0.547142857       1
     0.194733195     0.473319473     0.547142857       1
     0.204732205     0.473220473     0.547142857       1
     0.204831205     0.483120483     0.547142857       1
     0.214830215     0.483021483     0.547142857       1
     0.214929215     0.492921493     0.547142857       1
     0.224928225     0.492822493     0.547142857       1
     0.225027225     0.502722503     0.547142857       1
     0.235026235     0.502623503     0.547142857       1
     0.235125235     0.512523513     0.547142857       1
     0.245124245     0.512424512     0.547142857       1
     0.245223245     0.522324522     0.547142857       1
     0.255222255     0.522225522     0.547142857       1
     0.255321255     0.532125532     0.547142857       1
     0.265320265     0.532026532     0.547142857       1
     0.265419265     0.541926542     0.547142857       1
     0.275418275     0.541827542     0.547142857       1
     0.275517276     0.551727552     0.547142857       1
     0.285516286     0.551628552     0.547142857       1
     0.285615286     0.561528562     0.547142857       1
     0.295614296     0.561429561     0.547142857       1
     0.295713296     0.571329571     0.547142857       1
     0.305712306     0.571230571     0.547142857       1
     0.305811306     0.581130581     0.547142857       1
     0.315810316     0.581031581     0.547142857       1
     0.315909316     0.590931591     0.547142857       1
     0.325908326     0.590832591     0.547142857       1
     0.326007326     0.600732601     0.547142857       1
     0.336006336     0.600633601     0.547142857       1
     0.336105336     0.610533611     0.547142857       1
     0.346104346     0.610434610     0.547142857       1
     0.346203346     0.620334620     0.547142857       1
     0.356202356     0.620235620     0.547142857       1
     0.356301356     0.630135630     0.547142857       1
     0.366300366     0.630036630     0.547142857       1
     0.366399366     0.639936640     0.547142857       1
     0.376398376     0.639837640     0.547142857       1
     0.376497376     0.649737650     0.547142857       1
     0.386496386     0.649638650     0.547142857       1
     0.386595387     0.659538660     0.547142857       1
     0.396594397     0.659439659     0.547142857       1
     0.396693397     0.669339669     0.547142857       1
     0.406692407     0.669240669     0.547142857       1
     0.406791407     0.679140679     0.547142857       1
     0.416790417     0.679041679     0.547142857       1
     0.416889417     0.688941689     0.547142857       1
     0.426888427     0.688842689     0.547142857       1
     0.426987427     0.698742699     0.547142857       1
     0.436986437     0.698643699     0.547142857       1
     0.437085437     0.708543709     0.547142857       1
     0.447084447     0.708444708     0.547142857       1
     0.447183447     0.718344718     0.547142857       1
     0.457182457     0.718245718     0.547142857       1
     0.457281457     0.728145728     0.547142857       1
     0.467280467     0.728046728     0.547142857       1
     0.467379467     0.737946738     0.547142857       1
     0.477378477     0.737847738     0.547142857       1
     0.477477477     0.747747748     0.547142857       1
     0.487476487     0.747648748     0.547142857       1
     0.487575488     0.757548758     0.547142857       1
     0.497574498     0.757449757     0.547142857       1
     0.497673498     0.767349767     0.547142857       1
     0.507672508     0.767250767     0.547142857       1
     0.507771508     0.777150777     0.547142857       1
     0.517770518     0.777051777     0.547142857       1
     0.517869518     0.786951787     0.547142857       1
     0.527868528     0.786852787     0.547142857       1
     0.527967528     0.796752797     0.547142857       1
     0.537966538     0.796653797     0.547142857       1
     0.538065538     0.806553807     0.547142857       1
     0.548064548     0.806454806     0.547142857       1
     0.548163548     0.816354816     0.547142857       1
     0.558162558     0.816255816     0.547142857       1
     0.558261558     0.826155826     0.547142857       1
     0.568260568     0.826056826     0.547142857       1
     0.568359568     0.835956836     0.547142857       1
     0.578358578     0.835857836     0.547142857       1
     0.578457578     0.845757846     0.547142857       1
     0.588456588     0.845658846     0.547142857       1
     0.588555589     0.855558856     0.547142857       1
     0.598554599     0.855459855     0.547142857       1
     0.598653599     0.865359865     0.547142857       1
     0.608652609     0.865260865     0.547142857       1
     0.608751609     0.875160875     0.547142857       1
     0.618750619     0.875061875     0.547142857       1
     0.618849619     0.884961885     0.547142857       1
     0.628848629     0.884862885     0.547142857       1
     0.628947629     0.894762895     0.547142857       1
     0.638946639     0.894663895     0.547142857       1
     0.639045639     0.904563905     0.547142857       1
     0.649044649     0.904464904     0.547142857       1
     0.649143649     0.914364914     0.547142857       1
     0.659142659     0.914265914     0.547142857       1
     0.659241659     0.924165924     0.547142857       1
     0.669240669     0.924066924     0.547142857       1
     0.669339669     0.933966934     0.547142857       1
     0.679338679     0.933867934     0.547142857       1
     0.679437679     0.943767944     0.547142857       1
     0.689436689     0.943668944     0.547142857       1
     0.689535690     0.953568954     0.547142857       1
     0.699534700     0.953469953     0.547142857       1
     0.699633700     0.963369963     0.547142857       1
     0.709632710     0.963270963     0.547142857       1
     0.709731710     0.973170973     0.547142857       1
     0.719730720     0.973071973     0.547142857       1
     0.719829720     0.982971983     0.547142857       1
     0.729828730     0.982872983     0.547142857       1
     0.729927730     0.992772993     0.547142857       1
     0.739926740     0.992673993     0.547142857       1
     0.740025740     0.002574003     0.547142857       1
     0.750024750     0.002475002     0.547142857       1
     0.750123750     0.012375012     0.547142857       1
     0.760122760     0.012276012     0.547142857       1
     0.760221760     0.022176022     0.547142857       1
     0.770220770     0.022077022     0.547142857       1
     0.770319770     0.031977032     0.547142857       1
     0.780318780     0.031878032     0.547142857       1
     0.780417780     0.041778042     0.547142857       1
     0.790416790     0.041679042     0.547142857       1
     0.790515791     0.051579052     0.547142857       1
     0.800514801     0.051480051     0.547142857       1
     0.800613801     0.061380061     0.547142857       1
     0.810612811     0.061281061     0.547142857       1
     0.810711811     0.071181071     0.547142857       1
     0.820710821     0.071082071     0.547142857       1
     0.820809821     0.080982081     0.547142857       1
     0.830808831     0.080883081     0.547142857       1
     0.830907831     0.090783091     0.547142857       1
     0.840906841     0.090684091     0.547142857       1
     0.841005841     0.100584101     0.547142857       1
     0.851004851     0.100485100     0.547142857       1
     0.851103851     0.110385110     0.547142857       1
     0.861102861     0.110286110     0.547142857       1
     0.861201861     0.120186120     0.547142857       1
     0.871200871     0.120087120     0.547142857       1
     0.871299871     0.129987130     0.547142857       1
     0.881298881     0.129888130     0.547142857       1
     0.881397881     0.139788140     0.547142857       1
     0.891396891     0.139689140     0.547142857       1
     0.891495891     0.149589150     0.547142857       1
     0.901494901     0.149490149     0.547142857       1
     0.901593902     0.159390159     0.547142857       1
     0.911592912     0.159291159     0.547142857       1
     0.911691912     0.169191169     0.547142857       1
     0.921690922     0.169092169     0.547142857       1
     0.921789922     0.178992179     0.547142857       1
     0.931788932     0.178893179     0.547142857       1
     0.931887932     0.188793189     0.547142857       1
     0.941886942     0.188694189     0.547142857       1
     0.941985942     0.198594199     0.547142857       1
     0.951984952     0.198495198     0.547142857       1
     0.952083952     0.208395208     0.547142857       1
     0.962082962     0.208296208     0.547142857       1
     0.962181962     0.218196218     0.547142857       1
     0.972180972     0.218097218     0.547142857       1
     0.972279972     0.227997228     0.547142857       1
     0.982278982     0.227898228     0.547142857       1
     0.982377982     0.237798238     0.547142857       1
     0.992376992     0.237699238     0.547142857       1
     0.992475992     0.247599248     0.547142857       1
     0.002475002     0.247500248     0.547142857       1
     0.002574003     0.257400257     0.547142857       1
     0.012573013     0.257301257     0.547142857       1
     0.012672013     0.267201267     0.547142857       1
     0.022671023     0.267102267     0.547142857       1
     0.022770023     0.277002277     0.547142857       1
     0.032769033     0.276903277     0.547142857       1
     0.032868033     0.286803287     0.547142857       1
     0.042867043     0.286704287     0.547142857       1
     0.042966043     0.296604297     0.547142857       1
     0.052965053     0.296505297     0.547142857       1
     0.053064053     0.306405306     0.547142857       1
     0.063063063     0.306306306     0.547142857       1
     0.063162063     0.316206316     0.547142857       1
     0.073161073     0.316107316     0.547142857       1
     0.073260073     0.326007326     0.547142857       1
     0.083259083     0.325908326     0.547142857       1
     0.083358083     0.335808336     0.547142857       1
     0.093357093     0.335709336     0.547142857       1
     0.093456093     0.345609346     0.547142857       1
     0.103455103     0.345510346     0.547142857       1
     0.103554104     0.355410355     0.547142857       1
     0.113553114     0.355311355     0.547142857       1
     0.113652114     0.365211365     0.547142857       1
     0.123651124     0.365112365     0.547142857       1
     0.123750124     0.375012375     0.547142857       1
     0.133749134     0.374913375     0.547142857       1
     0.133848134     0.384813385     0.547142857       1
     0.143847144     0.384714385     0.547142857       1
     0.143946144     0.394614395     0.547142857       1
     0.153945154     0.394515395     0.547142857       1
     0.154044154     0.404415404     0.547142857       1
     0.164043164     0.404316404     0.547142857       1
     0.164142164     0.414216414     0.547142857       1
     0.174141174     0.414117414     0.547142857       1
     0.174240174     0.424017424     0.547142857       1
     0.184239184     0.423918424     0.547142857       1
     0.184338184     0.433818434     0.547142857       1
     0.194337194     0.433719434     0.547142857       1
     0.194436194     0.443619444     0.547142857       1
     0.204435204     0.443520444     0.547142857       1
     0.204534205     0.453420453     0.547142857       1
     0.214533215     0.453321453     0.547142857       1
     0.214632215     0.463221463     0.547142857       1
     0.224631225     0.463122463     0.547142857       1
     0.224730225     0.473022473     0.547142857       1
     0.234729235     0.472923473     0.547142857       1
     0.234828235     0.482823483     0.547142857       1
     0.244827245     0.482724483     0.547142857       1
     0.244926245     0.492624493     0.547142857       1
     0.254925255     0.492525493     0.547142857       1
     0.255024255     0.502425502     0.547142857       1
     0.265023265     0.502326502     0.547142857       1
     0.265122265     0.512226512     0.547142857       1
     0.275121275     0.512127512     0.547142857       1
     0.275220275     0.522027522     0.547142857       1
     0.285219285     0.521928522     0.547142857       1
     0.285318285     0.531828532     0.547142857       1
     0.295317295     0.531729532     0.547142857       1
     0.295416295     0.541629542     0.547142857       1
     0.305415305     0.541530542     0.547142857       1
     0.305514306     0.551430551     0.547142857       1
     0.315513316     0.551331551     0.547142857       1
     0.315612316     0.561231561     0.547142857       1
     0.325611326     0.561132561     0.547142857       1
     0.325710326     0.571032571     0.547142857       1
     0.335709336     0.570933571     0.547142857       1
     0.335808336     0.580833581     0.547142857       1
     0.345807346     0.580734581     0.547142857       1
     0.345906346     0.590634591     0.547142857       1
     0.355905356     0.590535591     0.547142857       1
     0.356004356     0.600435600     0.547142857       1
     0.366003366     0.600336600     0.547142857       1
     0.366102366     0.610236610     0.547142857       1
     0.376101376     0.610137610     0.547142857       1
     0.376200376     0.620037620     0.547142857       1
     0.386199386     0.619938620     0.547142857       1
     0.386298386     0.629838630     0.547142857       1
     0.396297396     0.629739630     0.547142857       1
     0.396396396     0.639639640     0.547142857       1
     0.406395406     0.639540640     0.547142857       1
     0.406494406     0.649440649     0.547142857       1
     0.416493416     0.649341649     0.547142857       1
     0.416592417     0.659241659     0.547142857       1
     0.426591427     0.659142659     0.547142857       1
     0.426690427     0.669042669     0.547142857       1
     0.436689437     0.668943669     0.547142857       1
     0.436788437     0.678843679     0.547142857       1
     0.446787447     0.678744679     0.547142857       1
     0.446886447     0.688644689     0.547142857       1
     0.456885457     0.688545689     0.547142857       1
     0.456984457     0.698445698     0.547142857       1
     0.466983467     0.698346698     0.547142857       1
     0.467082467     0.708246708     0.547142857       1
     0.477081477     0.708147708     0.547142857       1
     0.477180477     0.718047718     0.547142857       1
     0.487179487     0.717948718     0.547142857       1
     0.487278487     0.727848728     0.547142857       1
     0.497277497     0.727749728     0.547142857       1
     0.497376497     0.737649738     0.547142857       1
     0.507375507     0.737550738     0.547142857       1
     0.507474507     0.747450747     0.547142857       1
     0.517473517     0.747351747     0.547142857       1
     0.517572518     0.757251757     0.547142857       1
     0.527571528     0.757152757     0.547142857       1
     0.527670528     0.767052767     0.547142857       1
     0.537669538     0.766953767     0.547142857       1
     0.537768538     0.776853777     0.547142857       1
     0.547767548     0.776754777     0.547142857       1
     0.547866548     0.786654787     0.547142857       1
     0.557865558     0.786555787     0.547142857       1
     0.557964558     0.796455796     0.547142857       1
     0.567963568     0.796356796     0.547142857       1
     0.568062568     0.806256806     0.547142857       1
     0.578061578     0.806157806     0.547142857       1
     0.578160578     0.816057816     0.547142857       1
     0.588159588     0.815958816     0.547142857       1
     0.588258588     0.825858826     0.547142857       1
     0.598257598     0.825759826     0.547142857       1
     0.598356598     0.835659836     0.547142857       1
     0.608355608     0.835560836     0.547142857       1
     0.608454608     0.845460845     0.547142857       1
     0.618453618     0.845361845     0.547142857       1
     0.618552619     0.855261855     0.547142857       1
     0.628551629     0.855162855     0.547142857       1
     0.628650629     0.865062865     0.547142857       1
     0.638649639     0.864963865     0.547142857       1
     0.638748639     0.874863875     0.547142857       1
     0.648747649     0.874764875     0.547142857       1
     0.648846649     0.884664885     0.547142857       1
     0.658845659     0.884565885     0.547142857       1
     0.658944659     0.894465894     0.547142857       1
     0.668943669     0.894366894     0.547142857       1
     0.669042669     0.904266904     0.547142857       1
     0.679041679     0.904167904     0.547142857       1
     0.679140679     0.914067914     0.547142857       1
     0.689139689     0.913968914     0.547142857       1
     0.689238689     0.923868924     0.547142857       1
     0.699237699     0.923769924     0.547142857       1
     0.699336699     0.933669934     0.547142857       1
     0.709335709     0.933570934     0.547142857       1
     0.709434709     0.943470943     0.547142857       1
     0.719433719     0.943371943     0.547142857       1
     0.719532720     0.953271953     0.547142857       1
     0.729531730     0.953172953     0.547142857       1
     0.729630730     0.963072963     0.547142857       1
     0.739629740     0.962973963     0.547142857       1
     0.739728740     0.972873973     0.547142857       1
     0.749727750     0.972774973     0.547142857       1
     0.749826750     0.982674983     0.547142857       1
     0.759825760     0.982575983     0.547142857       1
     0.759924760     0.992475992     0.547142857       1
     0.769923770     0.992376992     0.547142857       1
     0.770022770     0.002277002     0.547142857       1
     0.780021780     0.002178002     0.547142857       1
     0.780120780     0.012078012     0.547142857       1
     0.790119790     0.011979012     0.547142857       1
     0.790218790     0.021879022     0.547142857       1
     0.800217800     0.021780022     0.547142857       1
     0.800316800     0.031680032     0.547142857       1
     0.810315810     0.031581032     0.547142857       1
     0.810414810     0.041481041     0.547142857       1
     0.820413820     0.041382041     0.547142857       1
     0.820512821     0.051282051     0.547142857       1
     0.830511831     0.051183051     0.547142857       1
     0.830610831     0.061083061     0.547142857       1
     0.840609841     0.060984061     0.547142857       1
     0.840708841     0.070884071     0.547142857       1
     0.850707851     0.070785071     0.547142857       1
     0.850806851     0.080685081     0.547142857       1
     0.860805861     0.080586081     0.547142857       1
     0.860904861     0.090486090     0.547142857       1
     0.870903871     0.090387090     0.547142857       1
     0.871002871     0.100287100     0.547142857       1
     0.881001881     0.100188100     0.547142857       1
     0.881100881     0.110088110     0.547142857       1
     0.891099891     0.109989110     0.547142857       1
     0.891198891     0.119889120     0.547142857       1
     0.901197901     0.119790120     0.547142857       1
     0.901296901     0.129690130     0.547142857       1
     0.911295911     0.129591130     0.547142857       1
     0.911394911     0.139491139     0.547142857       1
     0.921393921     0.139392139     0.547142857       1
     0.921492921     0.149292149     0.547142857       1
     0.931491931     0.149193149     0.547142857       1
     0.931590932     0.159093159     0.547142857       1
     0.941589942     0.158994159     0.547142857       1
     0.941688942     0.168894169     0.547142857       1
     0.951687952     0.168795169     0.547142857       1
     0.951786952     0.178695179     0.547142857       1
     0.961785962     0.178596179     0.547142857       1
     0.961884962     0.188496188     0.547142857       1
     0.971883972     0.188397188     0.547142857       1
     0.971982972     0.198297198     0.547142857       1
     0.981981982     0.198198198     0.547142857       1
     0.982080982     0.208098208     0.547142857       1
     0.992079992     0.207999208     0.547142857       1
     0.992178992     0.217899218     0.547142857       1
     0.002178002     0.217800218     0.547142857       1
     0.002277002     0.227700228     0.547142857       1
     0.012276012     0.227601228     0.547142857       1
     0.012375012     0.237501238     0.547142857       1
     0.022374022     0.237402237     0.547142857       1
     0.022473022     0.247302247     0.547142857       1
     0.032472032     0.247203247     0.547142857       1
     0.032571033     0.257103257     0.547142857       1
     0.042570043     0.257004257     0.547142857       1
     0.042669043     0.266904267     0.547142857       1
     0.052668053     0.266805267     0.547142857       1
     0.052767053     0.276705277     0.547142857       1
     0.062766063     0.276606277     0.547142857       1
     0.062865063     0.286506287     0.547142857       1
     0.072864073     0.286407286     0.547142857       1
     0.072963073     0.296307296     0.547142857       1
     0.082962083     0.296208296     0.547142857       1
     0.083061083     0.306108306     0.547142857       1
     0.093060093     0.306009306     0.547142857       1
     0.093159093     0.315909316     0.547142857       1
     0.103158103     0.315810316     0.547142857       1
     0.103257103     0.325710326     0.547142857       1
     0.113256113     0.325611326     0.547142857       1
     0.113355113     0.335511336     0.547142857       1
     0.123354123     0.335412335     0.547142857       1
     0.123453123     0.345312345     0.547142857       1
     0.133452133     0.345213345     0.547142857       1
     0.133551134     0.355113355     0.547142857       1
     0.143550144     0.355014355     0.547142857       1
     0.143649144     0.364914365     0.547142857       1
     0.153648154     0.364815365     0.547142857       1
     0.153747154     0.374715375     0.547142857       1
     0.163746164     0.374616375     0.547142857       1
     0.163845164     0.384516385     0.547142857       1
     0.173844174     0.384417384     0.547142857       1
     0.173943174     0.394317394     0.547142857       1
     0.183942184     0.394218394     0.547142857       1
     0.184041184     0.404118404     0.547142857       1
     0.194040194     0.404019404     0.547142857       1
     0.194139194     0.413919414     0.547142857       1
     0.204138204     0.413820414     0.547142857       1
     0.204237204     0.423720424     0.547142857       1
     0.214236214     0.423621424     0.547142857       1
     0.214335214     0.433521434     0.547142857       1
     0.224334224     0.433422433     0.547142857       1
     0.224433224     0.443322443     0.547142857       1
     0.234432234     0.443223443     0.547142857       1
     0.234531235     0.453123453     0.547142857       1
     0.244530245     0.453024453     0.547142857       1
     0.244629245     0.462924463     0.547142857       1
     0.254628255     0.462825463     0.547142857       1
     0.254727255     0.472725473     0.547142857       1
     0.264726265     0.472626473     0.547142857       1
     0.264825265     0.482526483     0.547142857       1
     0.274824275     0.482427482     0.547142857       1
     0.274923275     0.492327492     0.547142857       1
     0.284922285     0.492228492     0.547142857       1
     0.285021285     0.502128502     0.547142857       1
     0.295020295     0.502029502     0.547142857       1
     0.295119295     0.511929512     0.547142857       1
     0.305118305     0.511830512     0.547142857       1
     0.305217305     0.521730522     0.547142857       1
     0.315216315     0.521631522     0.547142857       1
     0.315315315     0.531531532     0.547142857       1
     0.325314325     0.531432531     0.547142857       1
     0.325413325     0.541332541     0.547142857       1
     0.335412335     0.541233541     0.547142857       1
     0.335511336     0.551133551     0.547142857       1
     0.345510346     0.551034551     0.547142857       1
     0.345609346     0.560934561     0.547142857       1
     0.355608356     0.560835561     0.547142857       1
     0.355707356     0.570735571     0.547142857       1
     0.365706366     0.570636571     0.547142857       1
     0.365805366     0.580536581     0.547142857       1
     0.375804376     0.580437580     0.547142857       1
     0.375903376     0.590337590     0.547142857       1
     0.385902386     0.590238590     0.547142857       1
     0.386001386     0.600138600     0.547142857       1
     0.396000396     0.600039600     0.547142857       1
     0.396099396     0.609939610     0.547142857       1
     0.406098406     0.609840610     0.547142857       1
     0.406197406     0.619740620     0.547142857       1
     0.416196416     0.619641620     0.547142857       1
     0.416295416     0.629541630     0.547142857       1
     0.426294426     0.629442629     0.547142857       1
     0.426393426     0.639342639     0.547142857       1
     0.436392436     0.639243639     0.547142857       1
     0.436491436     0.649143649     0.547142857       1
     0.446490446     0.649044649     0.547142857       1
     0.446589447     0.658944659     0.547142857       1
     0.456588457     0.658845659     0.547142857       1
     0.456687457     0.668745669     0.547142857       1
     0.466686467     0.668646669     0.547142857       1
     0.466785467     0.678546679     0.547142857       1
     0.476784477     0.678447678     0.547142857       1
     0.476883477     0.688347688     0.547142857       1
     0.486882487     0.688248688     0.547142857       1
     0.486981487     0.698148698     0.547142857       1
     0.496980497     0.698049698     0.547142857       1
     0.497079497     0.707949708     0.547142857       1
     0.507078507     0.707850708     0.547142857       1
     0.507177507     0.717750718     0.547142857       1
     0.517176517     0.717651718     0.547142857       1
     0.517275517     0.727551728     0.547142857       1
     0.527274527     0.727452727     0.547142857       1
     0.527373527     0.737352737     0.547142857       1
     0.537372537     0.737253737     0.547142857       1
     0.537471537     0.747153747     0.547142857       1
     0.547470547     0.747054747     0.547142857       1
     0.547569548     0.756954757     0.547142857       1
     0.557568558     0.756855757     0.547142857       1
     0.557667558     0.766755767     0.547142857       1
     0.567666568     0.766656767     0.547142857       1
     0.567765568     0.776556777     0.547142857       1
     0.577764578     0.776457776     0.547142857       1
     0.577863578     0.786357786     0.547142857       1
     0.587862588     0.786258786     0.547142857       1
     0.587961588     0.796158796     0.547142857       1
     0.597960598     0.796059796     0.547142857       1
     0.598059598     0.805959806     0.547142857       1
     0.608058608     0.805860806     0.547142857       1
     0.608157608     0.815760816     0.547142857       1
     0.618156618     0.815661816     0.547142857       1
     0.618255618     0.825561826     0.547142857       1
     0.628254628     0.825462825     0.547142857       1
     0.628353628     0.835362835     0.547142857       1
     0.638352638     0.835263835     0.547142857       1
     0.638451638     0.845163845     0.547142857       1
     0.648450648     0.845064845     0.547142857       1
     0.648549649     0.854964855     0.547142857       1
     0.658548659     0.854865855     0.547142857       1
     0.658647659     0.864765865     0.547142857       1
     0.668646669     0.864666865     0.547142857       1
     0.668745669     0.874566875     0.547142857       1
     0.678744679     0.874467874     0.547142857       1
     0.678843679     0.884367884     0.547142857       1
     0.688842689     0.884268884     0.547142857       1
     0.688941689     0.894168894     0.547142857       1
     0.698940699     0.894069894     0.547142857       1
     0.699039699     0.903969904     0.547142857       1
     0.709038709     0.903870904     0.547142857       1
     0.709137709     0.913770914     0.547142857       1
     0.719136719     0.913671914     0.547142857       1
     0.719235719     0.923571924     0.547142857       1
     0.729234729     0.923472923     0.547142857       1
     0.729333729     0.933372933     0.547142857       1
     0.739332739     0.933273933     0.547142857       1
     0.739431739     0.943173943     0.547142857       1
     0.749430749     0.943074943     0.547142857       1
     0.749529750     0.952974953     0.547142857       1
     0.759528760     0.952875953     0.547142857       1
     0.759627760     0.962775963     0.547142857       1
     0.769626770     0.962676963     0.547142857       1
     0.769725770     0.972576973     0.547142857       1
     0.779724780     0.972477972     0.547142857       1
     0.779823780     0.982377982     0.547142857       1
     0.789822790     0.982278982     0.547142857       1
     0.789921790     0.992178992     0.547142857       1
     0.799920800     0.992079992     0.547142857       1
     0.800019800     0.001980002     0.547142857       1
     0.810018810     0.001881002     0.547142857       1
     0.810117810     0.011781012     0.547142857       1
     0.820116820     0.011682012     0.547142857       1
     0.820215820     0.021582022     0.547142857       1
     0.830214830     0.021483021     0.547142857       1
     0.830313830     0.031383031     0.547142857       1
     0.840312840     0.031284031     0.547142857       1
     0.840411840     0.041184041     0.547142857       1
     0.850410850     0.041085041     0.547142857       1
     0.850509851     0.050985051     0.547142857       1
     0.860508861     0.050886051     0.547142857       1
     0.860607861     0.060786061     0.547142857       1
     0.870606871     0.060687061     0.547142857       1
     0.870705871     0.070587071     0.547142857       1
     0.880704881     0.070488070     0.547142857       1
     0.880803881     0.080388080     0.547142857       1
     0.890802891     0.080289080     0.547142857       1
     0.890901891     0.090189090     0.547142857       1
     0.900900901     0.090090090     0.547142857       1
     0.900999901     0.099990100     0.547142857       1
     0.910998911     0.099891100     0.547142857       1
     0.911097911     0.109791110     0.547142857       1
     0.921096921     0.109692110     0.547142857       1
     0.921195921     0.119592120     0.547142857       1
     0.931194931     0.119493119     0.547142857       1
     0.931293931     0.129393129     0.547142857       1
     0.941292941     0.129294129     0.547142857       1
     0.941391941     0.139194139     0.547142857       1
     0.951390951     0.139095139     0.547142857       1
     0.951489951     0.148995149     0.547142857       1
     0.961488961     0.148896149     0.547142857       1
     0.961587962     0.158796159     0.547142857       1
     0.971586972     0.158697159     0.547142857       1
     0.971685972     0.168597169     0.547142857       1
     0.981684982     0.168498168     0.547142857       1
     0.981783982     0.178398178     0.547142857       1
     0.991782992     0.178299178     0.547142857       1
     0.991881992     0.188199188     0.547142857       1
     0.001881002     0.188100188     0.547142857       1
     0.001980002     0.198000198     0.547142857       1
     0.011979012     0.197901198     0.547142857       1
     0.012078012     0.207801208     0.547142857       1
     0.022077022     0.207702208     0.547142857       1
     0.022176022     0.217602218     0.547142857       1
     0.032175032     0.217503218     0.547142857       1
     0.032274032     0.227403227     0.547142857       1
     0.042273042     0.227304227     0.547142857       1
     0.042372042     0.237204237     0.547142857       1
     0.052371052     0.237105237     0.547142857       1
     0.052470052     0.247005247     0.547142857       1
     0.062469062     0.246906247     0.547142857       1
     0.062568063     0.256806257     0.547142857       1
     0.072567073     0.256707257     0.547142857       1
     0.072666073     0.266607267     0.547142857       1
     0.082665083     0.266508267     0.547142857       1
     0.082764083     0.276408276     0.547142857       1
     0.092763093     0.276309276     0.547142857       1
     0.092862093     0.286209286     0.547142857       1
     0.102861103     0.286110286     0.547142857       1
     0.102960103     0.296010296     0.547142857       1
     0.112959113     0.295911296     0.547142857       1
     0.113058113     0.305811306     0.547142857       1
     0.123057123     0.305712306     0.547142857       1
     0.123156123     0.315612316     0.547142857       1
     0.133155133     0.315513316     0.547142857       1
     0.133254133     0.325413325     0.547142857       1
     0.143253143     0.325314325     0.547142857       1
     0.143352143     0.335214335     0.547142857       1
     0.153351153     0.335115335     0.547142857       1
     0.153450153     0.345015345     0.547142857       1
     0.163449163     0.344916345     0.547142857       1
     0.163548164     0.354816355     0.547142857       1
     0.173547174     0.354717355     0.547142857       1
     0.173646174     0.364617365     0.547142857       1
     0.183645184     0.364518365     0.547142857       1
     0.183744184     0.374418374     0.547142857       1
     0.193743194     0.374319374     0.547142857       1
     0.193842194     0.384219384     0.547142857       1
     0.203841204     0.384120384     0.547142857       1
     0.203940204     0.394020394     0.547142857       1
     0.213939214     0.393921394     0.547142857       1
     0.214038214     0.403821404     0.547142857       1
     0.224037224     0.403722404     0.547142857       1
     0.224136224     0.413622414     0.547142857       1
     0.234135234     0.413523414     0.547142857       1
     0.234234234     0.423423423     0.547142857       1
     0.244233244     0.423324423     0.547142857       1
     0.244332244     0.433224433     0.547142857       1
     0.254331254     0.433125433     0.547142857       1
     0.254430254     0.443025443     0.547142857       1
     0.264429264     0.442926443     0.547142857       1
     0.264528265     0.452826453     0.547142857       1
     0.274527275     0.452727453     0.547142857       1
     0.274626275     0.462627463     0.547142857       1
     0.284625285     0.462528463     0.547142857       1
     0.284724285     0.472428472     0.547142857       1
     0.294723295     0.472329472     0.547142857       1
     0.294822295     0.482229482     0.547142857       1
     0.304821305     0.482130482     0.547142857       1
     0.304920305     0.492030492     0.547142857       1
     0.314919315     0.491931492     0.547142857       1
     0.315018315     0.501831502     0.547142857       1
     0.325017325     0.501732502     0.547142857       1
     0.325116325     0.511632512     0.547142857       1
     0.335115335     0.511533512     0.547142857       1
     0.335214335     0.521433521     0.547142857       1
     0.345213345     0.521334521     0.547142857       1
     0.345312345     0.531234531     0.547142857       1
     0.355311355     0.531135531     0.547142857       1
     0.355410355     0.541035541     0.547142857       1
     0.365409365     0.540936541     0.547142857       1
     0.365508366     0.550836551     0.547142857       1
     0.375507376     0.550737551     0.547142857       1
     0.375606376     0.560637561     0.547142857       1
     0.385605386     0.560538561     0.547142857       1
     0.385704386     0.570438570     0.547142857       1
     0.395703396     0.570339570     0.547142857       1
     0.395802396     0.580239580     0.547142857       1
     0.405801406     0.580140580     0.547142857       1
     0.405900406     0.590040590     0.547142857       1
     0.415899416     0.589941590     0.547142857       1
     0.415998416     0.599841600     0.547142857       1
     0.425997426     0.599742600     0.547142857       1
     0.426096426     0.609642610     0.547142857       1
     0.436095436     0.609543610     0.547142857       1
     0.436194436     0.619443619     0.547142857       1
     0.446193446     0.619344619     0.547142857       1
     0.446292446     0.629244629     0.547142857       1
     0.456291456     0.629145629     0.547142857       1
     0.456390456     0.639045639     0.547142857       1
     0.466389466     0.638946639     0.547142857       1
     0.466488466     0.648846649     0.547142857       1
     0.476487476     0.648747649     0.547142857       1
     0.476586477     0.658647659     0.547142857       1
     0.486585487     0.658548659     0.547142857       1
     0.486684487     0.668448668     0.547142857       1
     0.496683497     0.668349668     0.547142857       1
     0.496782497     0.678249678     0.547142857       1
     0.506781507     0.678150678     0.547142857       1
     0.506880507     0.688050688     0.547142857       1
     0.516879517     0.687951688     0.547142857       1
     0.516978517     0.697851698     0.547142857       1
     0.526977527     0.697752698     0.547142857       1
     0.527076527     0.707652708     0.547142857       1
     0.537075537     0.707553708     0.547142857       1
     0.537174537     0.717453717     0.547142857       1
     0.547173547     0.717354717     0.547142857       1
     0.547272547     0.727254727     0.547142857       1
     0.557271557     0.727155727     0.547142857       1
     0.557370557     0.737055737     0.547142857       1
     0.567369567     0.736956737     0.547142857       1
     0.567468567     0.746856747     0.547142857       1
     0.577467577     0.746757747     0.547142857       1
     0.577566578     0.756657757     0.547142857       1
     0.587565588     0.756558757     0.547142857       1
     0.587664588     0.766458766     0.547142857       1
     0.597663598     0.766359766     0.547142857       1
     0.597762598     0.776259776     0.547142857       1
     0.607761608     0.776160776     0.547142857       1
     0.607860608     0.786060786     0.547142857       1
     0.617859618     0.785961786     0.547142857       1
     0.617958618     0.795861796     0.547142857       1
     0.627957628     0.795762796     0.547142857       1
     0.628056628     0.805662806     0.547142857       1
     0.638055638     0.805563806     0.547142857       1
     0.638154638     0.815463815     0.547142857       1
     0.648153648     0.815364815     0.547142857       1
     0.648252648     0.825264825     0.547142857       1
     0.658251658     0.825165825     0.547142857       1
     0.658350658     0.835065835     0.547142857       1
     0.668349668     0.834966835     0.547142857       1
     0.668448668     0.844866845     0.547142857       1
     0.678447678     0.844767845     0.547142857       1
     0.678546679     0.854667855     0.547142857       1
     0.688545689     0.854568855     0.547142857       1
     0.688644689     0.864468864     0.547142857       1
     0.698643699     0.864369864     0.547142857       1
     0.698742699     0.874269874     0.547142857       1
     0.708741709     0.874170874     0.547142857       1
     0.708840709     0.884070884     0.547142857       1
     0.718839719     0.883971884     0.547142857       1
     0.718938719     0.893871894     0.547142857       1
     0.728937729     0.893772894     0.547142857       1
     0.729036729     0.903672904     0.547142857       1
     0.739035739     0.903573904     0.547142857       1
     0.739134739     0.913473913     0.547142857       1
     0.749133749     0.913374913     0.547142857       1
     0.749232749     0.923274923     0.547142857       1
     0.759231759     0.923175923     0.547142857       1
     0.759330759     0.933075933     0.547142857       1
     0.769329769     0.932976933     0.547142857       1
     0.769428769     0.942876943     0.547142857       1
     0.779427779     0.942777943     0.547142857       1
     0.779526780     0.952677953     0.547142857       1
     0.789525790     0.952578953     0.547142857       1
     0.789624790     0.962478962     0.547142857       1
     0.799623800     0.962379962     0.547142857       1
     0.799722800     0.972279972     0.547142857       1
     0.809721810     0.972180972     0.547142857       1
     0.809820810     0.982080982     0.547142857       1
     0.819819820     0.981981982     0.547142857       1
     0.819918820     0.991881992     0.547142857       1
     0.829917830     0.991782992     0.547142857       1
     0.830016830     0.001683002     0.547142857       1
     0.840015840     0.001584002     0.547142857       1
     0.840114840     0.011484011     0.547142857       1
     0.850113850     0.011385011     0.547142857       1
     0.850212850     0.021285021     0.547142857       1
     0.860211860     0.021186021     0.547142857       1
     0.860310860     0.031086031     0.547142857       1
     0.870309870     0.030987031     0.547142857       1
     0.870408870     0.040887041     0.547142857       1
     0.880407880     0.040788041     0.547142857       1
     0.880506881     0.050688051     0.547142857       1
     0.890505891     0.050589051     0.547142857       1
     0.890604891     0.060489060     0.547142857       1
     0.900603901     0.060390060     0.547142857       1
     0.900702901     0.070290070     0.547142857       1
     0.910701911     0.070191070     0.547142857       1
     0.910800911     0.080091080     0.547142857       1
     0.920799921     0.079992080     0.547142857       1
     0.920898921     0.089892090     0.547142857       1
     0.930897931     0.089793090     0.547142857       1
     0.930996931     0.099693100     0.547142857       1
     0.940995941     0.099594100     0.547142857       1
     0.941094941     0.109494109     0.547142857       1
     0.951093951     0.109395109     0.547142857       1
     0.951192951     0.119295119     0.547142857       1
     0.961191961     0.119196119     0.547142857       1
     0.961290961     0.129096129     0.547142857       1
     0.971289971     0.128997129     0.547142857       1
     0.971388971     0.138897139     0.547142857       1
     0.981387981     0.138798139     0.547142857       1
     0.981486981     0.148698149     0.547142857       1
     0.991485991     0.148599149     0.547142857       1
     0.991584992     0.158499158     0.547142857       1
     0.001584002     0.158400158     0.547142857       1
     0.001683002     0.168300168     0.547142857       1
     0.011682012     0.168201168     0.547142857       1
     0.011781012     0.178101178     0.547142857       1
     0.021780022     0.178002178     0.547142857       1
     0.021879022     0.187902188     0.547142857       1
     0.031878032     0.187803188     0.547142857       1
     0.031977032     0.197703198     0.547142857       1
     0.041976042     0.197604198     0.547142857       1
     0.042075042     0.207504208     0.547142857       1
     0.052074052     0.207405207     0.547142857       1
     0.052173052     0.217305217     0.547142857       1
     0.062172062     0.217206217     0.547142857       1
     0.062271062     0.227106227     0.547142857       1
     0.072270072     0.227007227     0.547142857       1
     0.072369072     0.236907237     0.547142857       1
     0.082368082     0.236808237     0.547142857       1
     0.082467082     0.246708247     0.547142857       1
     0.092466092     0.246609247     0.547142857       1
     0.092565093     0.256509257     0.547142857       1
     0.102564103     0.256410256     0.547142857       1
     0.102663103     0.266310266     0.547142857       1
     0.112662113     0.266211266     0.547142857       1
     0.112761113     0.276111276     0.547142857       1
     0.122760123     0.276012276     0.547142857       1
     0.122859123     0.285912286     0.547142857       1
     0.132858133     0.285813286     0.547142857       1
     0.132957133     0.295713296     0.547142857       1
     0.142956143     0.295614296     0.547142857       1
     0.143055143     0.305514306     0.547142857       1
     0.153054153     0.305415305     0.547142857       1
     0.153153153     0.315315315     0.547142857       1
     0.163152163     0.315216315     0.547142857       1
     0.163251163     0.325116325     0.547142857       1
     0.173250173     0.325017325     0.547142857       1
     0.173349173     0.334917335     0.547142857       1
     0.183348183     0.334818335     0.547142857       1
     0.183447183     0.344718345     0.547142857       1
     0.193446193     0.344619345     0.547142857       1
     0.193545194     0.354519355     0.547142857       1
     0.203544204     0.354420354     0.547142857       1
     0.203643204     0.364320364     0.547142857       1
     0.213642214     0.364221364     0.547142857       1
     0.213741214     0.374121374     0.547142857       1
     0.223740224     0.374022374     0.547142857       1
     0.223839224     0.383922384     0.547142857       1
     0.233838234     0.383823384     0.547142857       1
     0.233937234     0.393723394     0.547142857       1
     0.243936244     0.393624394     0.547142857       1
     0.244035244     0.403524404     0.547142857       1
     0.254034254     0.403425403     0.547142857       1
     0.254133254     0.413325413     0.547142857       1
     0.264132264     0.413226413     0.547142857       1
     0.264231264     0.423126423     0.547142857       1
     0.274230274     0.423027423     0.547142857       1
     0.274329274     0.432927433     0.547142857       1
     0.284328284     0.432828433     0.547142857       1
     0.284427284     0.442728443     0.547142857       1
     0.294426294     0.442629443     0.547142857       1
     0.294525295     0.452529453     0.547142857       1
     0.304524305     0.452430452     0.547142857       1
     0.304623305     0.462330462     0.547142857       1
     0.314622315     0.462231462     0.547142857       1
     0.314721315     0.472131472     0.547142857       1
     0.324720325     0.472032472     0.547142857       1
     0.324819325     0.481932482     0.547142857       1
     0.334818335     0.481833482     0.547142857       1
     0.334917335     0.491733492     0.547142857       1
     0.344916345     0.491634492     0.547142857       1
     0.345015345     0.501534502     0.547142857       1
     0.355014355     0.501435501     0.547142857       1
     0.355113355     0.511335511     0.547142857       1
     0.365112365     0.511236511     0.547142857       1
     0.365211365     0.521136521     0.547142857       1
     0.375210375     0.521037521     0.547142857       1
     0.375309375     0.530937531     0.547142857       1
     0.385308385     0.530838531     0.547142857       1
     0.385407385     0.540738541     0.547142857       1
     0.395406395     0.540639541     0.547142857       1
     0.395505396     0.550539551     0.547142857       1
     0.405504406     0.550440550     0.547142857       1
     0.405603406     0.560340560     0.547142857       1
     0.415602416     0.560241560     0.547142857       1
     0.415701416     0.570141570     0.547142857       1
     0.425700426     0.570042570     0.547142857       1
     0.425799426     0.579942580     0.547142857       1
     0.435798436     0.579843580     0.547142857       1
     0.435897436     0.589743590     0.547142857       1
     0.445896446     0.589644590     0.547142857       1
     0.445995446     0.599544600     0.547142857       1
     0.455994456     0.599445599     0.547142857       1
     0.456093456     0.609345609     0.547142857       1
     0.466092466     0.609246609     0.547142857       1
     0.466191466     0.619146619     0.547142857       1
     0.476190476     0.619047619     0.547142857       1
     0.476289476     0.628947629     0.547142857       1
     0.486288486     0.628848629     0.547142857       1
     0.486387486     0.638748639     0.547142857       1
     0.496386496     0.638649639     0.547142857       1
     0.496485496     0.648549649     0.547142857       1
     0.506484506     0.648450648     0.547142857       1
     0.506583507     0.658350658     0.547142857       1
     0.516582517     0.658251658     0.547142857       1
     0.516681517     0.668151668     0.547142857       1
     0.526680527     0.668052668     0.547142857       1
     0.526779527     0.677952678     0.547142857       1
     0.536778537     0.677853678     0.547142857       1
     0.536877537     0.687753688     0.547142857       1
     0.546876547     0.687654688     0.547142857       1
     0.546975547     0.697554698     0.547142857       1
     0.556974557     0.697455697     0.547142857       1
     0.557073557     0.707355707     0.547142857       1
     0.567072567     0.707256707     0.547142857       1
     0.567171567     0.717156717     0.547142857       1
     0.577170577     0.717057717     0.547142857       1
     0.577269577     0.726957727     0.547142857       1
     0.587268587     0.726858727     0.547142857       1
     0.587367587     0.736758737     0.547142857       1
     0.597366597     0.736659737     0.547142857       1
     0.597465597     0.746559747     0.547142857       1
     0.607464607     0.746460746     0.547142857       1
     0.607563608     0.756360756     0.547142857       1
     0.617562618     0.756261756     0.547142857       1
     0.617661618     0.766161766     0.547142857       1
     0.627660628     0.766062766     0.547142857       1
     0.627759628     0.775962776     0.547142857       1
     0.637758638     0.775863776     0.547142857       1
     0.637857638     0.785763786     0.547142857       1
     0.647856648     0.785664786     0.547142857       1
     0.647955648     0.795564796     0.547142857       1
     0.657954658     0.795465795     0.547142857       1
     0.658053658     0.805365805     0.547142857       1
     0.668052668     0.805266805     0.547142857       1
     0.668151668     0.815166815     0.547142857       1
     0.678150678     0.815067815     0.547142857       1
     0.678249678     0.824967825     0.547142857       1
     0.688248688     0.824868825     0.547142857       1
     0.688347688     0.834768835     0.547142857       1
     0.698346698     0.834669835     0.547142857       1
     0.698445698     0.844569845     0.547142857       1
     0.708444708     0.844470844     0.547142857       1
     0.708543709     0.854370854     0.547142857       1
     0.718542719     0.854271854     0.547142857       1
     0.718641719     0.864171864     0.547142857       1
     0.728640729     0.864072864     0.547142857       1
     0.728739729     0.873972874     0.547142857       1
     0.738738739     0.873873874     0.547142857       1
     0.738837739     0.883773884     0.547142857       1
     0.748836749     0.883674884     0.547142857       1
     0.748935749     0.893574894     0.547142857       1
     0.758934759     0.893475893     0.547142857       1
     0.759033759     0.903375903     0.547142857       1
     0.769032769     0.903276903     0.547142857       1
     0.769131769     0.913176913     0.547142857       1
     0.779130779     0.913077913     0.547142857       1
     0.779229779     0.922977923     0.547142857       1
     0.789228789     0.922878923     0.547142857       1
     0.789327789     0.932778933     0.547142857       1
     0.799326799     0.932679933     0.547142857       1
     0.799425799     0.942579943     0.547142857       1
     0.809424809     0.942480942     0.547142857       1
     0.809523810     0.952380952     0.547142857       1
     0.819522820     0.952281952     0.547142857       1
     0.819621820     0.962181962     0.547142857       1
     0.829620830     0.962082962     0.547142857       1
     0.829719830     0.971982972     0.547142857       1
     0.839718840     0.971883972     0.547142857       1
     0.839817840     0.981783982     0.547142857       1
     0.849816850     0.981684982     0.547142857       1
     0.849915850     0.991584992     0.547142857       1
     0.859914860     0.991485991     0.547142857       1
     0.860013860     0.001386001     0.547142857       1
     0.870012870     0.001287001     0.547142857       1
     0.870111870     0.011187011     0.547142857       1
     0.880110880     0.011088011     0.547142857       1
     0.880209880     0.020988021     0.547142857       1
     0.890208890     0.020889021     0.547142857       1
     0.890307890     0.030789031     0.547142857       1
     0.900306900     0.030690031     0.547142857       1
     0.900405900     0.040590041     0.547142857       1
     0.910404910     0.040491040     0.547142857       1
     0.910503911     0.050391050     0.547142857       1
     0.920502921     0.050292050     0.547142857       1
     0.920601921     0.060192060     0.547142857       1
     0.930600931     0.060093060     0.547142857       1
     0.930699931     0.069993070     0.547142857       1
     0.940698941     0.069894070     0.547142857       1
     0.940797941     0.079794080     0.547142857       1
     0.950796951     0.079695080     0.547142857       1
     0.950895951     0.089595090     0.547142857       1
     0.960894961     0.089496089     0.547142857       1
     0.960993961     0.099396099     0.547142857       1
     0.970992971     0.099297099     0.547142857       1
     0.971091971     0.109197109     0.547142857       1
     0.981090981     0.109098109     0.547142857       1
     0.981189981     0.118998119     0.547142857       1
     0.991188991     0.118899119     0.547142857       1
     0.991287991     0.128799129     0.547142857       1
     0.001287001     0.128700129     0.547142857       1
     0.001386001     0.138600139     0.547142857       1
     0.011385011     0.138501139     0.547142857       1
     0.011484011     0.148401148     0.547142857       1
     0.021483021     0.148302148     0.547142857       1
     0.021582022     0.158202158     0.547142857       1
     0.031581032     0.158103158     0.547142857       1
     0.031680032     0.168003168     0.547142857       1
     0.041679042     0.167904168     0.547142857       1
     0.041778042     0.177804178     0.547142857       1
     0.051777052     0.177705178     0.547142857       1
     0.051876052     0.187605188     0.547142857       1
     0.061875062     0.187506188     0.547142857       1
     0.061974062     0.197406197     0.547142857       1
     0.071973072     0.197307197     0.547142857       1
     0.072072072     0.207207207     0.547142857       1
     0.082071082     0.207108207     0.547142857       1
     0.082170082     0.217008217     0.547142857       1
     0.092169092     0.216909217     0.547142857       1
     0.092268092     0.226809227     0.547142857       1
     0.102267102     0.226710227     0.547142857       1
     0.102366102     0.236610237     0.547142857       1
     0.112365112     0.236511237     0.547142857       1
     0.112464112     0.246411246     0.547142857       1
     0.122463122     0.246312246     0.547142857       1
     0.122562123     0.256212256     0.547142857       1
     0.132561133     0.256113256     0.547142857       1
     0.132660133     0.266013266     0.547142857       1
     0.142659143     0.265914266     0.547142857       1
     0.142758143     0.275814276     0.547142857       1
     0.152757153     0.275715276     0.547142857       1
     0.152856153     0.285615286     0.547142857       1
     0.162855163     0.285516286     0.547142857       1
     0.162954163     0.295416295     0.547142857       1
     0.172953173     0.295317295     0.547142857       1
     0.173052173     0.305217305     0.547142857       1
     0.183051183     0.305118305     0.547142857       1
     0.183150183     0.315018315     0.547142857       1
     0.193149193     0.314919315     0.547142857       1
     0.193248193     0.324819325     0.547142857       1
     0.203247203     0.324720325     0.547142857       1
     0.203346203     0.334620335     0.547142857       1
     0.213345213     0.334521335     0.547142857       1
     0.213444213     0.344421344     0.547142857       1
     0.223443223     0.344322344     0.547142857       1
     0.223542224     0.354222354     0.547142857       1
     0.233541234     0.354123354     0.547142857       1
     0.233640234     0.364023364     0.547142857       1
     0.243639244     0.363924364     0.547142857       1
     0.243738244     0.373824374     0.547142857       1
     0.253737254     0.373725374     0.547142857       1
     0.253836254     0.383625384     0.547142857       1
     0.263835264     0.383526384     0.547142857       1
     0.263934264     0.393426393     0.547142857       1
     0.273933274     0.393327393     0.547142857       1
     0.274032274     0.403227403     0.547142857       1
     0.284031284     0.403128403     0.547142857       1
     0.284130284     0.413028413     0.547142857       1
     0.294129294     0.412929413     0.547142857       1
     0.294228294     0.422829423     0.547142857       1
     0.304227304     0.422730423     0.547142857       1
     0.304326304     0.432630433     0.547142857       1
     0.314325314     0.432531433     0.547142857       1
     0.314424314     0.442431442     0.547142857       1
     0.324423324     0.442332442     0.547142857       1
     0.324522325     0.452232452     0.547142857       1
     0.334521335     0.452133452     0.547142857       1
     0.334620335     0.462033462     0.547142857       1
     0.344619345     0.461934462     0.547142857       1
     0.344718345     0.471834472     0.547142857       1
     0.354717355     0.471735472     0.547142857       1
     0.354816355     0.481635482     0.547142857       1
     0.364815365     0.481536482     0.547142857       1
     0.364914365     0.491436491     0.547142857       1
     0.374913375     0.491337491     0.547142857       1
     0.375012375     0.501237501     0.547142857       1
     0.385011385     0.501138501     0.547142857       1
     0.385110385     0.511038511     0.547142857       1
     0.395109395     0.510939511     0.547142857       1
     0.395208395     0.520839521     0.547142857       1
     0.405207405     0.520740521     0.547142857       1
     0.405306405     0.530640531     0.547142857       1
     0.415305415     0.530541531     0.547142857       1
     0.415404415     0.540441540     0.547142857       1
     0.425403425     0.540342540     0.547142857       1
     0.425502426     0.550242550     0.547142857       1
     0.435501436     0.550143550     0.547142857       1
     0.435600436     0.560043560     0.547142857       1
     0.445599446     0.559944560     0.547142857       1
     0.445698446     0.569844570     0.547142857       1
     0.455697456     0.569745570     0.547142857       1
     0.455796456     0.579645580     0.547142857       1
     0.465795466     0.579546580     0.547142857       1
     0.465894466     0.589446589     0.547142857       1
     0.475893476     0.589347589     0.547142857       1
     0.475992476     0.599247599     0.547142857       1
     0.485991486     0.599148599     0.547142857       1
     0.486090486     0.609048609     0.547142857       1
     0.496089496     0.608949609     0.547142857       1
     0.496188496     0.618849619     0.547142857       1
     0.506187506     0.618750619     0.547142857       1
     0.506286506     0.628650629     0.547142857       1
     0.516285516     0.628551629     0.547142857       1
     0.516384516     0.638451638     0.547142857       1
     0.526383526     0.638352638     0.547142857       1
     0.526482526     0.648252648     0.547142857       1
     0.536481536     0.648153648     0.547142857       1
     0.536580537     0.658053658     0.547142857       1
     0.546579547     0.657954658     0.547142857       1
     0.546678547     0.667854668     0.547142857       1
     0.556677557     0.667755668     0.547142857       1
     0.556776557     0.677655678     0.547142857       1
     0.566775567     0.677556678     0.547142857       1
     0.566874567     0.687456687     0.547142857       1
     0.576873577     0.687357687     0.547142857       1
     0.576972577     0.697257697     0.547142857       1
     0.586971587     0.697158697     0.547142857       1
     0.587070587     0.707058707     0.547142857       1
     0.597069597     0.706959707     0.547142857       1
     0.597168597     0.716859717     0.547142857       1
     0.607167607     0.716760717     0.547142857       1
     0.607266607     0.726660727     0.547142857       1
     0.617265617     0.726561727     0.547142857       1
     0.617364617     0.736461736     0.547142857       1
     0.627363627     0.736362736     0.547142857       1
     0.627462627     0.746262746     0.547142857       1
     0.637461637     0.746163746     0.547142857       1
     0.637560638     0.756063756     0.547142857       1
     0.647559648     0.755964756     0.547142857       1
     0.647658648     0.765864766     0.547142857       1
     0.657657658     0.765765766     0.547142857       1
     0.657756658     0.775665776     0.547142857       1
     0.667755668     0.775566776     0.547142857       1
     0.667854668     0.785466785     0.547142857       1
     0.677853678     0.785367785     0.547142857       1
     0.677952678     0.795267795     0.547142857       1
     0.687951688     0.795168795     0.547142857       1
     0.688050688     0.805068805     0.547142857       1
     0.698049698     0.804969805     0.547142857       1
     0.698148698     0.814869815     0.547142857       1
     0.708147708     0.814770815     0.547142857       1
     0.708246708     0.824670825     0.547142857       1
     0.718245718     0.824571825     0.547142857       1
     0.718344718     0.834471834     0.547142857       1
     0.728343728     0.834372834     0.547142857       1
     0.728442728     0.844272844     0.547142857       1
     0.738441738     0.844173844     0.547142857       1
     0.738540739     0.854073854     0.547142857       1
     0.748539749     0.853974854     0.547142857       1
     0.748638749     0.863874864     0.547142857       1
     0.758637759     0.863775864     0.547142857       1
     0.758736759     0.873675874     0.547142857       1
     0.768735769     0.873576874     0.547142857       1
     0.768834769     0.883476883     0.547142857       1
     0.778833779     0.883377883     0.547142857       1
     0.778932779     0.893277893     0.547142857       1
     0.788931789     0.893178893     0.547142857       1
     0.789030789     0.903078903     0.547142857       1
     0.799029799     0.902979903     0.547142857       1
     0.799128799     0.912879913     0.547142857       1
     0.809127809     0.912780913     0.547142857       1
     0.809226809     0.922680923     0.547142857       1
     0.819225819     0.922581923     0.547142857       1
     0.819324819     0.932481932     0.547142857       1
     0.829323829     0.932382932     0.547142857       1
     0.829422829     0.942282942     0.547142857       1
     0.839421839     0.942183942     0.547142857       1
     0.839520840     0.952083952     0.547142857       1
     0.849519850     0.951984952     0.547142857       1
     0.849618850     0.961884962     0.547142857       1
     0.859617860     0.961785962     0.547142857       1
     0.859716860     0.971685972     0.547142857       1
     0.869715870     0.971586972     0.547142857       1
     0.869814870     0.981486981     0.547142857       1
     0.879813880     0.981387981     0.547142857       1
     0.879912880     0.991287991     0.547142857       1
     0.889911890     0.991188991     0.547142857       1
     0.890010890     0.001089001     0.547142857       1
     0.900009900     0.000990001     0.547142857       1
     0.900108900     0.010890011     0.547142857       1
     0.910107910     0.010791011     0.547142857       1
     0.910206910     0.020691021     0.547142857       1
     0.920205920     0.020592021     0.547142857       1
     0.920304920     0.030492030     0.547142857       1
     0.930303930     0.030393030     0.547142857       1
     0.930402930     0.040293040     0.547142857       1
     0.940401940     0.040194040     0.547142857       1
     0.940500941     0.050094050     0.547142857       1
     0.950499950     0.049995050     0.547142857       1
     0.950598951     0.059895060     0.547142857       1
     0.960597961     0.059796060     0.547142857       1
     0.960696961     0.069696070     0.547142857       1
     0.970695971     0.069597070     0.547142857       1
     0.970794971     0.079497079     0.547142857       1
     0.980793981     0.079398079     0.547142857       1
     0.980892981     0.089298089     0.547142857       1
     0.990891991     0.089199089     0.547142857       1
     0.990990991     0.099099099     0.547142857       1
     0.000990001     0.099000099     0.547142857       1
     0.001089001     0.108900109     0.547142857       1
     0.011088011     0.108801109     0.547142857       1
     0.011187011     0.118701119     0.547142857       1
     0.021186021     0.118602119     0.547142857       1
     0.021285021     0.128502129     0.547142857       1
     0.031284031     0.128403128     0.547142857       1
     0.031383031     0.138303138     0.547142857       1
     0.041382041     0.138204138     0.547142857       1
     0.041481041     0.148104148     0.547142857       1
     0.051480051     0.148005148     0.547142857       1
     0.051579052     0.157905158     0.547142857       1
     0.061578062     0.157806158     0.547142857       1
     0.061677062     0.167706168     0.547142857       1
     0.071676072     0.167607168     0.547142857       1
     0.071775072     0.177507178     0.547142857       1
     0.081774082     0.177408177     0.547142857       1
     0.081873082     0.187308187     0.547142857       1
     0.091872092     0.187209187     0.547142857       1
     0.091971092     0.197109197     0.547142857       1
     0.101970102     0.197010197     0.547142857       1
     0.102069102     0.206910207     0.547142857       1
     0.112068112     0.206811207     0.547142857       1
     0.112167112     0.216711217     0.547142857       1
     0.122166122     0.216612217     0.547142857       1
     0.122265122     0.226512227     0.547142857       1
     0.132264132     0.226413226     0.547142857       1
     0.132363132     0.236313236     0.547142857       1
     0.142362142     0.236214236     0.547142857       1
     0.142461142     0.246114246     0.547142857       1
     0.152460152     0.246015246     0.547142857       1
     0.152559153     0.255915256     0.547142857       1
     0.162558163     0.255816256     0.547142857       1
     0.162657163     0.265716266     0.547142857       1
     0.172656173     0.265617266     0.547142857       1
     0.172755173     0.275517276     0.547142857       1
     0.182754183     0.275418275     0.547142857       1
     0.182853183     0.285318285     0.547142857       1
     0.192852193     0.285219285     0.547142857       1
     0.192951193     0.295119295     0.547142857       1
     0.202950203     0.295020295     0.547142857       1
     0.203049203     0.304920305     0.547142857       1
     0.213048213     0.304821305     0.547142857       1
     0.213147213     0.314721315     0.547142857       1
     0.223146223     0.314622315     0.547142857       1
     0.223245223     0.324522325     0.547142857       1
     0.233244233     0.324423324     0.547142857       1
     0.233343233     0.334323334     0.547142857       1
     0.243342243     0.334224334     0.547142857       1
     0.243441243     0.344124344     0.547142857       1
     0.253440253     0.344025344     0.547142857       1
     0.253539254     0.353925354     0.547142857       1
     0.263538264     0.353826354     0.547142857       1
     0.263637264     0.363726364     0.547142857       1
     0.273636274     0.363627364     0.547142857       1
     0.273735274     0.373527374     0.547142857       1
     0.283734284     0.373428373     0.547142857       1
     0.283833284     0.383328383     0.547142857       1
     0.293832294     0.383229383     0.547142857       1
     0.293931294     0.393129393     0.547142857       1
     0.303930304     0.393030393     0.547142857       1
     0.304029304     0.402930403     0.547142857       1
     0.314028314     0.402831403     0.547142857       1
     0.314127314     0.412731413     0.547142857       1
     0.324126324     0.412632413     0.547142857       1
     0.324225324     0.422532423     0.547142857       1
     0.334224334     0.422433422     0.547142857       1
     0.334323334     0.432333432     0.547142857       1
     0.344322344     0.432234432     0.547142857       1
     0.344421344     0.442134442     0.547142857       1
     0.354420354     0.442035442     0.547142857       1
     0.354519355     0.451935452     0.547142857       1
     0.364518365     0.451836452     0.547142857       1
     0.364617365     0.461736462     0.547142857       1
     0.374616375     0.461637462     0.547142857       1
     0.374715375     0.471537472     0.547142857       1
     0.384714385     0.471438471     0.547142857       1
     0.384813385     0.481338481     0.547142857       1
     0.394812395     0.481239481     0.547142857       1
     0.394911395     0.491139491     0.547142857       1
     0.404910405     0.491040491     0.547142857       1
     0.405009405     0.500940501     0.547142857       1
     0.415008415     0.500841501     0.547142857       1
     0.415107415     0.510741511     0.547142857       1
     0.425106425     0.510642511     0.547142857       1
     0.425205425     0.520542521     0.547142857       1
     0.435204435     0.520443520     0.547142857       1
     0.435303435     0.530343530     0.547142857       1
     0.445302445     0.530244530     0.547142857       1
     0.445401445     0.540144540     0.547142857       1
     0.455400455     0.540045540     0.547142857       1
     0.455499455     0.549945550     0.547142857       1
     0.465498465     0.549846550     0.547142857       1
     0.465597466     0.559746560     0.547142857       1
     0.475596476     0.559647560     0.547142857       1
     0.475695476     0.569547570     0.547142857       1
     0.485694486     0.569448569     0.547142857       1
     0.485793486     0.579348579     0.547142857       1
     0.495792496     0.579249579     0.547142857       1
     0.495891496     0.589149589     0.547142857       1
     0.505890506     0.589050589     0.547142857       1
     0.505989506     0.598950599     0.547142857       1
     0.515988516     0.598851599     0.547142857       1
     0.516087516     0.608751609     0.547142857       1
     0.526086526     0.608652609     0.547142857       1
     0.526185526     0.618552619     0.547142857       1
     0.536184536     0.618453618     0.547142857       1
     0.536283536     0.628353628     0.547142857       1
     0.546282546     0.628254628     0.547142857       1
     0.546381546     0.638154638     0.547142857       1
     0.556380556     0.638055638     0.547142857       1
     0.556479556     0.647955648     0.547142857       1
     0.566478566     0.647856648     0.547142857       1
     0.566577567     0.657756658     0.547142857       1
     0.576576577     0.657657658     0.547142857       1
     0.576675577     0.667557668     0.547142857       1
     0.586674587     0.667458667     0.547142857       1
     0.586773587     0.677358677     0.547142857       1
     0.596772597     0.677259677     0.547142857       1
     0.596871597     0.687159687     0.547142857       1
     0.606870607     0.687060687     0.547142857       1
     0.606969607     0.696960697     0.547142857       1
     0.616968617     0.696861697     0.547142857       1
     0.617067617     0.706761707     0.547142857       1
     0.627066627     0.706662707     0.547142857       1
     0.627165627     0.716562717     0.547142857       1
     0.637164637     0.716463716     0.547142857       1
     0.637263637     0.726363726     0.547142857       1
     0.647262647     0.726264726     0.547142857       1
     0.647361647     0.736164736     0.547142857       1
     0.657360657     0.736065736     0.547142857       1
     0.657459657     0.745965746     0.547142857       1
     0.667458667     0.745866746     0.547142857       1
     0.667557668     0.755766756     0.547142857       1
     0.677556678     0.755667756     0.547142857       1
     0.677655678     0.765567766     0.547142857       1
     0.687654688     0.765468765     0.547142857       1
     0.687753688     0.775368775     0.547142857       1
     0.697752698     0.775269775     0.547142857       1
     0.697851698     0.785169785     0.547142857       1
     0.707850708     0.785070785     0.547142857       1
     0.707949708     0.794970795     0.547142857       1
     0.717948718     0.794871795     0.547142857       1
     0.718047718     0.804771805     0.547142857       1
     0.728046728     0.804672805     0.547142857       1
     0.728145728     0.814572815     0.547142857       1
     0.738144738     0.814473814     0.547142857       1
     0.738243738     0.824373824     0.547142857       1
     0.748242748     0.824274824     0.547142857       1
     0.748341748     0.834174834     0.547142857       1
     0.758340758     0.834075834     0.547142857       1
     0.758439758     0.843975844     0.547142857       1
     0.768438768     0.843876844     0.547142857       1
     0.768537769     0.853776854     0.547142857       1
     0.778536779     0.853677854     0.547142857       1
     0.778635779     0.863577864     0.547142857       1
     0.788634789     0.863478863     0.547142857       1
     0.788733789     0.873378873     0.547142857       1
     0.798732799     0.873279873     0.547142857       1
     0.798831799     0.883179883     0.547142857       1
     0.808830809     0.883080883     0.547142857       1
     0.808929809     0.892980893     0.547142857       1
     0.818928819     0.892881893     0.547142857       1
     0.819027819     0.902781903     0.547142857       1
     0.829026829     0.902682903     0.547142857       1
     0.829125829     0.912582913     0.547142857       1
     0.839124839     0.912483912     0.547142857       1
     0.839223839     0.922383922     0.547142857       1
     0.849222849     0.922284922     0.547142857       1
     0.849321849     0.932184932     0.547142857       1
     0.859320859     0.932085932     0.547142857       1
     0.859419859     0.941985942     0.547142857       1
     0.869418869     0.941886942     0.547142857       1
     0.869517870     0.951786952     0.547142857       1
     0.879516880     0.951687952     0.547142857       1
     0.879615880     0.961587962     0.547142857       1
     0.889614890     0.961488961     0.547142857       1
     0.889713890     0.971388971     0.547142857       1
     0.899712900     0.971289971     0.547142857       1
     0.899811900     0.981189981     0.547142857       1
     0.909810910     0.981090981     0.547142857       1
     0.909909910     0.990990991     0.547142857       1
     0.919908920     0.990891991     0.547142857       1
     0.920007920     0.000792001     0.547142857       1
     0.930006930     0.000693001     0.547142857       1
     0.930105930     0.010593011     0.547142857       1
     0.940104940     0.010494010     0.547142857       1
     0.940203940     0.020394020     0.547142857       1
     0.950202950     0.020295020     0.547142857       1
     0.950301950     0.030195030     0.547142857       1
     0.960300960     0.030096030     0.547142857       1
     0.960399960     0.039996040     0.547142857       1
     0.970398970     0.039897040     0.547142857       1
     0.970497970     0.049797050     0.547142857       1
     0.980496980     0.049698050     0.547142857       1
     0.980595981     0.059598060     0.547142857       1
     0.990594991     0.059499059     0.547142857       1
     0.990693991     0.069399069     0.547142857       1
     0.000693001     0.069300069     0.547142857       1
     0.000792001     0.079200079     0.547142857       1
     0.010791011     0.079101079     0.547142857       1
     0.010890011     0.089001089     0.547142857       1
     0.020889021     0.088902089     0.547142857       1
     0.020988021     0.098802099     0.547142857       1
     0.030987031     0.098703099     0.547142857       1
     0.031086031     0.108603109     0.547142857       1
     0.041085041     0.108504109     0.547142857       1
     0.041184041     0.118404118     0.547142857       1
     0.051183051     0.118305118     0.547142857       1
     0.051282051     0.128205128     0.547142857       1
     0.061281061     0.128106128     0.547142857       1
     0.061380061     0.138006138     0.547142857       1
     0.071379071     0.137907138     0.547142857       1
     0.071478071     0.147807148     0.547142857       1
     0.081477081     0.147708148     0.547142857       1
     0.081576082     0.157608158     0.547142857       1
     0.091575092     0.157509158     0.547142857       1
     0.091674092     0.167409167     0.547142857       1
     0.101673102     0.167310167     0.547142857       1
     0.101772102     0.177210177     0.547142857       1
     0.111771112     0.177111177     0.547142857       1
     0.111870112     0.187011187     0.547142857       1
     0.121869122     0.186912187     0.547142857       1
     0.121968122     0.196812197     0.547142857       1
     0.131967132     0.196713197     0.547142857       1
     0.132066132     0.206613207     0.547142857       1
     0.142065142     0.206514207     0.547142857       1
     0.142164142     0.216414216     0.547142857       1
     0.152163152     0.216315216     0.547142857       1
     0.152262152     0.226215226     0.547142857       1
     0.162261162     0.226116226     0.547142857       1
     0.162360162     0.236016236     0.547142857       1
     0.172359172     0.235917236     0.547142857       1
     0.172458172     0.245817246     0.547142857       1
     0.182457182     0.245718246     0.547142857       1
     0.182556183     0.255618256     0.547142857       1
     0.192555193     0.255519256     0.547142857       1
     0.192654193     0.265419265     0.547142857       1
     0.202653203     0.265320265     0.547142857       1
     0.202752203     0.275220275     0.547142857       1
     0.212751213     0.275121275     0.547142857       1
     0.212850213     0.285021285     0.547142857       1
     0.222849223     0.284922285     0.547142857       1
     0.222948223     0.294822295     0.547142857       1
     0.232947233     0.294723295     0.547142857       1
     0.233046233     0.304623305     0.547142857       1
     0.243045243     0.304524305     0.547142857       1
     0.243144243     0.314424314     0.547142857       1
     0.253143253     0.314325314     0.547142857       1
     0.253242253     0.324225324     0.547142857       1
     0.263241263     0.324126324     0.547142857       1
     0.263340263     0.334026334     0.547142857       1
     0.273339273     0.333927334     0.547142857       1
     0.273438273     0.343827344     0.547142857       1
     0.283437283     0.343728344     0.547142857       1
     0.283536284     0.353628354     0.547142857       1
     0.293535294     0.353529354     0.547142857       1
     0.293634294     0.363429363     0.547142857       1
     0.303633304     0.363330363     0.547142857       1
     0.303732304     0.373230373     0.547142857       1
     0.313731314     0.373131373     0.547142857       1
     0.313830314     0.383031383     0.547142857       1
     0.323829324     0.382932383     0.547142857       1
     0.323928324     0.392832393     0.547142857       1
     0.333927334     0.392733393     0.547142857       1
     0.334026334     0.402633403     0.547142857       1
     0.344025344     0.402534403     0.547142857       1
     0.344124344     0.412434412     0.547142857       1
     0.354123354     0.412335412     0.547142857       1
     0.354222354     0.422235422     0.547142857       1
     0.364221364     0.422136422     0.547142857       1
     0.364320364     0.432036432     0.547142857       1
     0.374319374     0.431937432     0.547142857       1
     0.374418374     0.441837442     0.547142857       1
     0.384417384     0.441738442     0.547142857       1
     0.384516385     0.451638452     0.547142857       1
     0.394515395     0.451539452     0.547142857       1
     0.394614395     0.461439461     0.547142857       1
     0.404613405     0.461340461     0.547142857       1
     0.404712405     0.471240471     0.547142857       1
     0.414711415     0.471141471     0.547142857       1
     0.414810415     0.481041481     0.547142857       1
     0.424809425     0.480942481     0.547142857       1
     0.424908425     0.490842491     0.547142857       1
     0.434907435     0.490743491     0.547142857       1
     0.435006435     0.500643501     0.547142857       1
     0.445005445     0.500544501     0.547142857       1
     0.445104445     0.510444510     0.547142857       1
     0.455103455     0.510345510     0.547142857       1
     0.455202455     0.520245520     0.547142857       1
     0.465201465     0.520146520     0.547142857       1
     0.465300465     0.530046530     0.547142857       1
     0.475299475     0.529947530     0.547142857       1
     0.475398475     0.539847540     0.547142857       1
     0.485397485     0.539748540     0.547142857       1
     0.485496485     0.549648550     0.547142857       1
     0.495495495     0.549549550     0.547142857       1
     0.495594496     0.559449559     0.547142857       1
     0.505593506     0.559350559     0.547142857       1
     0.505692506     0.569250569     0.547142857       1
     0.515691516     0.569151569     0.547142857       1
     0.515790516     0.579051579     0.547142857       1
     0.525789526     0.578952579     0.547142857       1
     0.525888526     0.588852589     0.547142857       1
     0.535887536     0.588753589     0.547142857       1
     0.535986536     0.598653599     0.547142857       1
     0.545985546     0.598554599     0.547142857       1
     0.546084546     0.608454608     0.547142857       1
     0.556083556     0.608355608     0.547142857       1
     0.556182556     0.618255618     0.547142857       1
     0.566181566     0.618156618     0.547142857       1
     0.566280566     0.628056628     0.547142857       1
     0.576279576     0.627957628     0.547142857       1
     0.576378576     0.637857638     0.547142857       1
     0.586377586     0.637758638     0.547142857       1
     0.586476586     0.647658648     0.547142857       1
     0.596475596     0.647559648     0.547142857       1
     0.596574597     0.657459657     0.547142857       1
     0.606573607     0.657360657     0.547142857       1
     0.606672607     0.667260667     0.547142857       1
     0.616671617     0.667161667     0.547142857       1
     0.616770617     0.677061677     0.547142857       1
     0.626769627     0.676962677     0.547142857       1
     0.626868627     0.686862687     0.547142857       1
     0.636867637     0.686763687     0.547142857       1
     0.636966637     0.696663697     0.547142857       1
     0.646965647     0.696564697     0.547142857       1
     0.647064647     0.706464706     0.547142857       1
     0.657063657     0.706365706     0.547142857       1
     0.657162657     0.716265716     0.547142857       1
     0.667161667     0.716166716     0.547142857       1
     0.667260667     0.726066726     0.547142857       1
     0.677259677     0.725967726     0.547142857       1
     0.677358677     0.735867736     0.547142857       1
     0.687357687     0.735768736     0.547142857       1
     0.687456687     0.745668746     0.547142857       1
     0.697455697     0.745569746     0.547142857       1
     0.697554698     0.755469755     0.547142857       1
     0.707553708     0.755370755     0.547142857       1
     0.707652708     0.765270765     0.547142857       1
     0.717651718     0.765171765     0.547142857       1
     0.717750718     0.775071775     0.547142857       1
     0.727749728     0.774972775     0.547142857       1
     0.727848728     0.784872785     0.547142857       1
     0.737847738     0.784773785     0.547142857       1
     0.737946738     0.794673795     0.547142857       1
     0.747945748     0.794574795     0.547142857       1
     0.748044748     0.804474804     0.547142857       1
     0.758043758     0.804375804     0.547142857       1
     0.758142758     0.814275814     0.547142857       1
     0.768141768     0.814176814     0.547142857       1
     0.768240768     0.824076824     0.547142857       1
     0.778239778     0.823977824     0.547142857       1
     0.778338778     0.833877834     0.547142857       1
     0.788337788     0.833778834     0.547142857       1
     0.788436788     0.843678844     0.547142857       1
     0.798435798     0.843579844     0.547142857       1
     0.798534799     0.853479853     0.547142857       1
     0.808533809     0.853380853     0.547142857       1
     0.808632809     0.863280863     0.547142857       1
     0.818631819     0.863181863     0.547142857       1
     0.818730819     0.873081873     0.547142857       1
     0.828729829     0.872982873     0.547142857       1
     0.828828829     0.882882883     0.547142857       1
     0.838827839     0.882783883     0.547142857       1
     0.838926839     0.892683893     0.547142857       1
     0.848925849     0.892584893     0.547142857       1
     0.849024849     0.902484902     0.547142857       1
     0.859023859     0.902385902     0.547142857       1
     0.859122859     0.912285912     0.547142857       1
     0.869121869     0.912186912     0.547142857       1
     0.869220869     0.922086922     0.547142857       1
     0.879219879     0.921987922     0.547142857       1
     0.879318879     0.931887932     0.547142857       1
     0.889317889     0.931788932     0.547142857       1
     0.889416889     0.941688942     0.547142857       1
     0.899415899     0.941589942     0.547142857       1
     0.899514900     0.951489951     0.547142857       1
     0.909513910     0.951390951     0.547142857       1
     0.909612910     0.961290961     0.547142857       1
     0.919611920     0.961191961     0.547142857       1
     0.919710920     0.971091971     0.547142857       1
     0.929709930     0.970992971     0.547142857       1
     0.929808930     0.980892981     0.547142857       1
     0.939807940     0.980793981     0.547142857       1
     0.939906940     0.990693991     0.547142857       1
     0.949905950     0.990594991     0.547142857       1
     0.950004950     0.000495000     0.547142857       1
     0.960003960     0.000396000     0.547142857       1
     0.960102960     0.010296010     0.547142857       1
     0.970101970     0.010197010     0.547142857       1
     0.970200970     0.020097020     0.547142857       1
     0.980199980     0.019998020     0.547142857       1
     0.980298980     0.029898030     0.547142857       1
     0.990297990     0.029799030     0.547142857       1
     0.990396990     0.039699040     0.547142857       1
     0.000396000     0.039600040     0.547142857       1
     0.000495000     0.049500050     0.547142857       1
     0.010494010     0.049401049     0.547142857       1
     0.010593011     0.059301059     0.547142857       1
     0.020592021     0.059202059     0.547142857       1
     0.020691021     0.069102069     0.547142857       1
     0.030690031     0.069003069     0.547142857       1
     0.030789031     0.078903079     0.547142857       1
     0.040788041     0.078804079     0.547142857       1
     0.040887041     0.088704089     0.547142857       1
     0.050886051     0.088605089     0.547142857       1
     0.050985051     0.098505099     0.547142857       1
     0.060984061     0.098406098     0.547142857       1
     0.061083061     0.108306108     0.547142857       1
     0.071082071     0.108207108     0.547142857       1
     0.071181071     0.118107118     0.547142857       1
     0.081180081     0.118008118     0.547142857       1
     0.081279081     0.127908128     0.547142857       1
     0.091278091     0.127809128     0.547142857       1
     0.091377091     0.137709138     0.547142857       1
     0.101376101     0.137610138     0.547142857       1
     0.101475101     0.147510148     0.547142857       1
     0.111474111     0.147411147     0.547142857       1
     0.111573112     0.157311157     0.547142857       1
     0.121572122     0.157212157     0.547142857       1
     0.121671122     0.167112167     0.547142857       1
     0.131670132     0.167013167     0.547142857       1
     0.131769132     0.176913177     0.547142857       1
     0.141768142     0.176814177     0.547142857       1
     0.141867142     0.186714187     0.547142857       1
     0.151866152     0.186615187     0.547142857       1
     0.151965152     0.196515197     0.547142857       1
     0.161964162     0.196416196     0.547142857       1
     0.162063162     0.206316206     0.547142857       1
     0.172062172     0.206217206     0.547142857       1
     0.172161172     0.216117216     0.547142857       1
     0.182160182     0.216018216     0.547142857       1
     0.182259182     0.225918226     0.547142857       1
     0.192258192     0.225819226     0.547142857       1
     0.192357192     0.235719236     0.547142857       1
     0.202356202     0.235620236     0.547142857       1
     0.202455202     0.245520246     0.547142857       1
     0.212454212     0.245421245     0.547142857       1
     0.212553213     0.255321255     0.547142857       1
     0.222552223     0.255222255     0.547142857       1
     0.222651223     0.265122265     0.547142857       1
     0.232650233     0.265023265     0.547142857       1
     0.232749233     0.274923275     0.547142857       1
     0.242748243     0.274824275     0.547142857       1
     0.242847243     0.284724285     0.547142857       1
     0.252846253     0.284625285     0.547142857       1
     0.252945253     0.294525295     0.547142857       1
     0.262944263     0.294426294     0.547142857       1
     0.263043263     0.304326304     0.547142857       1
     0.273042273     0.304227304     0.547142857       1
     0.273141273     0.314127314     0.547142857       1
     0.283140283     0.314028314     0.547142857       1
     0.283239283     0.323928324     0.547142857       1
     0.293238293     0.323829324     0.547142857       1
     0.293337293     0.333729334     0.547142857       1
     0.303336303     0.333630334     0.547142857       1
     0.303435303     0.343530344     0.547142857       1
     0.313434313     0.343431343     0.547142857       1
     0.313533314     0.353331353     0.547142857       1
     0.323532324     0.353232353     0.547142857       1
     0.323631324     0.363132363     0.547142857       1
     0.333630334     0.363033363     0.547142857       1
     0.333729334     0.372933373     0.547142857       1
     0.343728344     0.372834373     0.547142857       1
     0.343827344     0.382734383     0.547142857       1
     0.353826354     0.382635383     0.547142857       1
     0.353925354     0.392535393     0.547142857       1
     0.363924364     0.392436392     0.547142857       1
     0.364023364     0.402336402     0.547142857       1
     0.374022374     0.402237402     0.547142857       1
     0.374121374     0.412137412     0.547142857       1
     0.384120384     0.412038412     0.547142857       1
     0.384219384     0.421938422     0.547142857       1
     0.394218394     0.421839422     0.547142857       1
     0.394317394     0.431739432     0.547142857       1
     0.404316404     0.431640432     0.547142857       1
     0.404415404     0.441540442     0.547142857       1
     0.414414414     0.441441441     0.547142857       1
     0.414513415     0.451341451     0.547142857       1
     0.424512425     0.451242451     0.547142857       1
     0.424611425     0.461142461     0.547142857       1
     0.434610435     0.461043461     0.547142857       1
     0.434709435     0.470943471     0.547142857       1
     0.444708445     0.470844471     0.547142857       1
     0.444807445     0.480744481     0.547142857       1
     0.454806455     0.480645481     0.547142857       1
     0.454905455     0.490545491     0.547142857       1
     0.464904465     0.490446490     0.547142857       1
     0.465003465     0.500346500     0.547142857       1
     0.475002475     0.500247500     0.547142857       1
     0.475101475     0.510147510     0.547142857       1
     0.485100485     0.510048510     0.547142857       1
     0.485199485     0.519948520     0.547142857       1
     0.495198495     0.519849520     0.547142857       1
     0.495297495     0.529749530     0.547142857       1
     0.505296505     0.529650530     0.547142857       1
     0.505395505     0.539550540     0.547142857       1
     0.515394515     0.539451539     0.547142857       1
     0.515493515     0.549351549     0.547142857       1
     0.525492525     0.549252549     0.547142857       1
     0.525591526     0.559152559     0.547142857       1
     0.535590536     0.559053559     0.547142857       1
     0.535689536     0.568953569     0.547142857       1
     0.545688546     0.568854569     0.547142857       1
     0.545787546     0.578754579     0.547142857       1
     0.555786556     0.578655579     0.547142857       1
     0.555885556     0.588555589     0.547142857       1
     0.565884566     0.588456588     0.547142857       1
     0.565983566     0.598356598     0.547142857       1
     0.575982576     0.598257598     0.547142857       1
     0.576081576     0.608157608     0.547142857       1
     0.586080586     0.608058608     0.547142857       1
     0.586179586     0.617958618     0.547142857       1
     0.596178596     0.617859618     0.547142857       1
     0.596277596     0.627759628     0.547142857       1
     0.606276606     0.627660628     0.547142857       1
     0.606375606     0.637560638     0.547142857       1
     0.616374616     0.637461637     0.547142857       1
     0.616473616     0.647361647     0.547142857       1
     0.626472626     0.647262647     0.547142857       1
     0.626571627     0.657162657     0.547142857       1
     0.636570637     0.657063657     0.547142857       1
     0.636669637     0.666963667     0.547142857       1
     0.646668647     0.666864667     0.547142857       1
     0.646767647     0.676764677     0.547142857       1
     0.656766657     0.676665677     0.547142857       1
     0.656865657     0.686565687     0.547142857       1
     0.666864667     0.686466686     0.547142857       1
     0.666963667     0.696366696     0.547142857       1
     0.676962677     0.696267696     0.547142857       1
     0.677061677     0.706167706     0.547142857       1
     0.687060687     0.706068706     0.547142857       1
     0.687159687     0.715968716     0.547142857       1
     0.697158697     0.715869716     0.547142857       1
     0.697257697     0.725769726     0.547142857       1
     0.707256707     0.725670726     0.547142857       1
     0.707355707     0.735570736     0.547142857       1
     0.717354717     0.735471735     0.547142857       1
     0.717453717     0.745371745     0.547142857       1
     0.727452727     0.745272745     0.547142857       1
     0.727551728     0.755172755     0.547142857       1
     0.737550738     0.755073755     0.547142857       1
     0.737649738     0.764973765     0.547142857       1
     0.747648748     0.764874765     0.547142857       1
     0.747747748     0.774774775     0.547142857       1
     0.757746758     0.774675775     0.547142857       1
     0.757845758     0.784575785     0.547142857       1
     0.767844768     0.784476784     0.547142857       1
     0.767943768     0.794376794     0.547142857       1
     0.777942778     0.794277794     0.547142857       1
     0.778041778     0.804177804     0.547142857       1
     0.788040788     0.804078804     0.547142857       1
     0.788139788     0.813978814     0.547142857       1
     0.798138798     0.813879814     0.547142857       1
     0.798237798     0.823779824     0.547142857       1
     0.808236808     0.823680824     0.547142857       1
     0.808335808     0.833580834     0.547142857       1
     0.818334818     0.833481833     0.547142857       1
     0.818433818     0.843381843     0.547142857       1
     0.828432828     0.843282843     0.547142857       1
     0.828531829     0.853182853     0.547142857       1
     0.838530839     0.853083853     0.547142857       1
     0.838629839     0.862983863     0.547142857       1
     0.848628849     0.862884863     0.547142857       1
     0.848727849     0.872784873     0.547142857       1
     0.858726859     0.872685873     0.547142857       1
     0.858825859     0.882585883     0.547142857       1
     0.868824869     0.882486882     0.547142857       1
     0.868923869     0.892386892     0.547142857       1
     0.878922879     0.892287892     0.547142857       1
     0.879021879     0.902187902     0.547142857       1
     0.889020889     0.902088902     0.547142857       1
     0.889119889     0.911988912     0.547142857       1
     0.899118899     0.911889912     0.547142857       1
     0.899217899     0.921789922     0.547142857       1
     0.909216909     0.921690922     0.547142857       1
     0.909315909     0.931590932     0.547142857       1
     0.919314919     0.931491931     0.547142857       1
     0.919413919     0.941391941     0.547142857       1
     0.929412929     0.941292941     0.547142857       1
     0.929511930     0.951192951     0.547142857       1
     0.939510940     0.951093951     0.547142857       1
     0.939609940     0.960993961     0.547142857       1
     0.949608950     0.960894961     0.547142857       1
     0.949707950     0.970794971     0.547142857       1
     0.959706960     0.970695971     0.547142857       1
     0.959805960     0.980595981     0.547142857       1
     0.969804970     0.980496980     0.547142857       1
     0.969903970     0.990396990     0.547142857       1
     0.979902980     0.990297990     0.547142857       1
     0.980001980     0.000198000     0.547142857       1
     0.990000990     0.000099000     0.547142857       1
     0.990099990     0.009999010     0.547142857       1
     0.000099000     0.009900010     0.547142857       1
     0.000198000     0.019800020     0.547142857       1
     0.010197010     0.019701020     0.547142857       1
     0.010296010     0.029601030     0.547142857       1
     0.020295020     0.029502030     0.547142857       1
     0.020394020     0.039402039     0.547142857       1
     0.030393030     0.039303039     0.547142857       1
     0.030492030     0.049203049     0.547142857       1
     0.040491040     0.049104049     0.547142857       1
     0.040590041     0.059004059     0.547142857       1
     0.050589051     0.058905059     0.547142857       1
     0.050688051     0.068805069     0.547142857       1
     0.060687061     0.068706069     0.547142857       1
     0.060786061     0.078606079     0.547142857       1
     0.070785071     0.078507079     0.547142857       1
     0.070884071     0.088407088     0.547142857       1
     0.080883081     0.088308088     0.547142857       1
     0.080982081     0.098208098     0.547142857       1
     0.090981091     0.098109098     0.547142857       1
     0.091080091     0.108009108     0.547142857       1
     0.101079101     0.107910108     0.547142857       1
     0.101178101     0.117810118     0.547142857       1
     0.111177111     0.117711118     0.547142857       1
     0.111276111     0.127611128     0.547142857       1
     0.121275121     0.127512128     0.547142857       1
     0.121374121     0.137412137     0.547142857       1
     0.131373131     0.137313137     0.547142857       1
     0.131472131     0.147213147     0.547142857       1
     0.141471141     0.147114147     0.547142857       1
     0.141570142     0.157014157     0.547142857       1
     0.151569152     0.156915157     0.547142857       1
     0.151668152     0.166815167     0.547142857       1
     0.161667162     0.166716167     0.547142857       1
     0.161766162     0.176616177     0.547142857       1
     0.171765172     0.176517177     0.547142857       1
     0.171864172     0.186417186     0.547142857       1
     0.181863182     0.186318186     0.547142857       1
     0.181962182     0.196218196     0.547142857       1
     0.191961192     0.196119196     0.547142857       1
     0.192060192     0.206019206     0.547142857       1
     0.202059202     0.205920206     0.547142857       1
     0.202158202     0.215820216     0.547142857       1
     0.212157212     0.215721216     0.547142857       1
     0.212256212     0.225621226     0.547142857       1
     0.222255222     0.225522226     0.547142857       1
     0.222354222     0.235422235     0.547142857       1
     0.232353232     0.235323235     0.547142857       1
     0.232452232     0.245223245     0.547142857       1
     0.242451242     0.245124245     0.547142857       1
     0.242550243     0.255024255     0.547142857       1
     0.252549253     0.254925255     0.547142857       1
     0.252648253     0.264825265     0.547142857       1
     0.262647263     0.264726265     0.547142857       1
     0.262746263     0.274626275     0.547142857       1
     0.272745273     0.274527275     0.547142857       1
     0.272844273     0.284427284     0.547142857       1
     0.282843283     0.284328284     0.547142857       1
     0.282942283     0.294228294     0.547142857       1
     0.292941293     0.294129294     0.547142857       1
     0.293040293     0.304029304     0.547142857       1
     0.303039303     0.303930304     0.547142857       1
     0.303138303     0.313830314     0.547142857       1
     0.313137313     0.313731314     0.547142857       1
     0.313236313     0.323631324     0.547142857       1
     0.323235323     0.323532324     0.547142857       1
     0.323334323     0.333432333     0.547142857       1
     0.333333333     0.333333333     0.547142857       1
     0.333432333     0.343233343     0.547142857       1
     0.343431343     0.343134343     0.547142857       1
     0.343530344     0.353034353     0.547142857       1
     0.353529354     0.352935353     0.547142857       1
     0.353628354     0.362835363     0.547142857       1
     0.363627364     0.362736363     0.547142857       1
     0.363726364     0.372636373     0.547142857       1
     0.373725374     0.372537373     0.547142857       1
     0.373824374     0.382437382     0.547142857       1
     0.383823384     0.382338382     0.547142857       1
     0.383922384     0.392238392     0.547142857       1
     0.393921394     0.392139392     0.547142857       1
     0.394020394     0.402039402     0.547142857       1
     0.404019404     0.401940402     0.547142857       1
     0.404118404     0.411840412     0.547142857       1
     0.414117414     0.411741412     0.547142857       1
     0.414216414     0.421641422     0.547142857       1
     0.424215424     0.421542422     0.547142857       1
     0.424314424     0.431442431     0.547142857       1
     0.434313434     0.431343431     0.547142857       1
     0.434412434     0.441243441     0.547142857       1
     0.444411444     0.441144441     0.547142857       1
     0.444510445     0.451044451     0.547142857       1
     0.454509455     0.450945451     0.547142857       1
     0.454608455     0.460845461     0.547142857       1
     0.464607465     0.460746461     0.547142857       1
     0.464706465     0.470646471     0.547142857       1
     0.474705475     0.470547471     0.547142857       1
     0.474804475     0.480447480     0.547142857       1
     0.484803485     0.480348480     0.547142857       1
     0.484902485     0.490248490     0.547142857       1
     0.494901495     0.490149490     0.547142857       1
     0.495000495     0.500049500     0.547142857       1
     0.504999505     0.499950500     0.547142857       1
     0.505098505     0.509850510     0.547142857       1
     0.515097515     0.509751510     0.547142857       1
     0.515196515     0.519651520     0.547142857       1
     0.525195525     0.519552520     0.547142857       1
     0.525294525     0.529452529     0.547142857       1
     0.535293535     0.529353529     0.547142857       1
     0.535392535     0.539253539     0.547142857       1
     0.545391545     0.539154539     0.547142857       1
     0.545490545     0.549054549     0.547142857       1
     0.555489555     0.548955549     0.547142857       1
     0.555588556     0.558855559     0.547142857       1
     0.565587566     0.558756559     0.547142857       1
     0.565686566     0.568656569     0.547142857       1
     0.575685576     0.568557569     0.547142857       1
     0.575784576     0.578457578     0.547142857       1
     0.585783586     0.578358578     0.547142857       1
     0.585882586     0.588258588     0.547142857       1
     0.595881596     0.588159588     0.547142857       1
     0.595980596     0.598059598     0.547142857       1
     0.605979606     0.597960598     0.547142857       1
     0.606078606     0.607860608     0.547142857       1
     0.616077616     0.607761608     0.547142857       1
     0.616176616     0.617661618     0.547142857       1
     0.626175626     0.617562618     0.547142857       1
     0.626274626     0.627462627     0.547142857       1
     0.636273636     0.627363627     0.547142857       1
     0.636372636     0.637263637     0.547142857       1
     0.646371646     0.637164637     0.547142857       1
     0.646470646     0.647064647     0.547142857       1
     0.656469656     0.646965647     0.547142857       1
     0.656568657     0.656865657     0.547142857       1
     0.666567667     0.656766657     0.547142857       1
     0.666666667     0.666666667     0.547142857       1
     0.676665677     0.666567667     0.547142857       1
     0.676764677     0.676467676     0.547142857       1
     0.686763687     0.676368676     0.547142857       1
     0.686862687     0.686268686     0.547142857       1
     0.696861697     0.686169686     0.547142857       1
     0.696960697     0.696069696     0.547142857       1
     0.706959707     0.695970696     0.547142857       1
     0.707058707     0.705870706     0.547142857       1
     0.717057717     0.705771706     0.547142857       1
     0.717156717     0.715671716     0.547142857       1
     0.727155727     0.715572716     0.547142857       1
     0.727254727     0.725472725     0.547142857       1
     0.737253737     0.725373725     0.547142857       1
     0.737352737     0.735273735     0.547142857       1
     0.747351747     0.735174735     0.547142857       1
     0.747450747     0.745074745     0.547142857       1
     0.757449757     0.744975745     0.547142857       1
     0.757548758     0.754875755     0.547142857       1
     0.767547768     0.754776755     0.547142857       1
     0.767646768     0.764676765     0.547142857       1
     0.777645778     0.764577765     0.547142857       1
     0.777744778     0.774477774     0.547142857       1
     0.787743788     0.774378774     0.547142857       1
     0.787842788     0.784278784     0.547142857       1
     0.797841798     0.784179784     0.547142857       1
     0.797940798     0.794079794     0.547142857       1
     0.807939808     0.793980794     0.547142857       1
     0.808038808     0.803880804     0.547142857       1
     0.818037818     0.803781804     0.547142857       1
     0.818136818     0.813681814     0.547142857       1
     0.828135828     0.813582814     0.547142857       1
     0.828234828     0.823482823     0.547142857       1
     0.838233838     0.823383823     0.547142857       1
     0.838332838     0.833283833     0.547142857       1
     0.848331848     0.833184833     0.547142857       1
     0.848430848     0.843084843     0.547142857       1
     0.858429858     0.842985843     0.547142857       1
     0.858528859     0.852885853     0.547142857       1
     0.868527869     0.852786853     0.547142857       1
     0.868626869     0.862686863     0.547142857       1
     0.878625879     0.862587863     0.547142857       1
     0.878724879     0.872487872     0.547142857       1
     0.888723889     0.872388872     0.547142857       1
     0.888822889     0.882288882     0.547142857       1
     0.898821899     0.882189882     0.547142857       1
     0.898920899     0.892089892     0.547142857       1
     0.908919909     0.891990892     0.547142857       1
     0.909018909     0.901890902     0.547142857       1
     0.919017919     0.901791902     0.547142857       1
     0.919116919     0.911691912     0.547142857       1
     0.929115929     0.911592912     0.547142857       1
     0.929214929     0.921492921     0.547142857       1
     0.939213939     0.921393921     0.547142857       1
     0.939312939     0.931293931     0.547142857       1
     0.949311949     0.931194931     0.547142857       1
     0.949410949     0.941094941     0.547142857       1
     0.959409959     0.940995941     0.547142857       1
     0.959508960     0.950895951     0.547142857       1
     0.969507970     0.950796951     0.547142857       1
     0.969606970     0.960696961     0.547142857       1
     0.979605980     0.960597961     0.547142857       1
     0.979704980     0.970497970     0.547142857       1
     0.989703990     0.970398970     0.547142857       1
     0.989802990     0.980298980     0.547142857       1
     0.999802000     0.980199980     0.547142857       1
     0.999901000     0.990099990     0.547142857       1
     0.009900010     0.990000990     0.547142857       1
     0.009900010     0.000099000     0.452857143       2
     0.019800020     0.000198000     0.452857143       3
     0.019701020     0.010197010     0.452857143       2
     0.029601030     0.010296010     0.452857143       3
     0.029502030     0.020295020     0.452857143       2
     0.039402039     0.020394020     0.452857143       3
     0.039303039     0.030393030     0.452857143       2
     0.049203049     0.030492030     0.452857143       3
     0.049104049     0.040491040     0.452857143       2
     0.059004059     0.040590041     0.452857143       3
     0.058905059     0.050589051     0.452857143       2
     0.068805069     0.050688051     0.452857143       3
     0.068706069     0.060687061     0.452857143       2
     0.078606079     0.060786061     0.452857143       3
     0.078507079     0.070785071     0.452857143       2
     0.088407088     0.070884071     0.452857143       3
     0.088308088     0.080883081     0.452857143       2
     0.098208098     0.080982081     0.452857143       3
     0.098109098     0.090981091     0.452857143       2
     0.108009108     0.091080091     0.452857143       3
     0.107910108     0.101079101     0.452857143       2
     0.117810118     0.101178101     0.452857143       3
     0.117711118     0.111177111     0.452857143       2
     0.127611128     0.111276111     0.452857143       3
     0.127512128     0.121275121     0.452857143       2
     0.137412137     0.121374121     0.452857143       3
     0.137313137     0.131373131     0.452857143       2
     0.147213147     0.131472131     0.452857143       3
     0.147114147     0.141471141     0.452857143       2
     0.157014157     0.141570142     0.452857143       3
     0.156915157     0.151569152     0.452857143       2
     0.166815167     0.151668152     0.452857143       3
     0.166716167     0.161667162     0.452857143       2
     0.176616177     0.161766162     0.452857143       3
     0.176517177     0.171765172     0.452857143       2
     0.186417186     0.171864172     0.452857143       3
     0.186318186     0.181863182     0.452857143       2
     0.196218196     0.181962182     0.452857143       3
     0.196119196     0.191961192     0.452857143       2
     0.206019206     0.192060192     0.452857143       3
     0.205920206     0.202059202     0.452857143       2
     0.215820216     0.202158202     0.452857143       3
     0.215721216     0.212157212     0.452857143       2
     0.225621226     0.212256212     0.452857143       3
     0.225522226     0.222255222     0.452857143       2
     0.235422235     0.222354222     0.452857143       3
     0.235323235     0.232353232     0.452857143       2
     0.245223245     0.232452232     0.452857143       3
     0.245124245     0.242451242     0.452857143       2
     0.255024255     0.242550243     0.452857143       3
     0.254925255     0.252549253     0.452857143       2
     0.264825265     0.252648253     0.452857143       3
     0.264726265     0.262647263     0.452857143       2
     0.274626275     0.262746263     0.452857143       3
     0.274527275     0.272745273     0.452857143       2
     0.284427284     0.272844273     0.452857143       3
     0.284328284     0.282843283     0.452857143       2
     0.294228294     0.282942283     0.452857143       3
     0.294129294     0.292941293     0.452857143       2
     0.304029304     0.293040293     0.452857143       3
     0.303930304     0.303039303     0.452857143       2
     0.313830314     0.303138303     0.452857143       3
     0.313731314     0.313137313     0.452857143       2
     0.323631324     0.313236313     0.452857143       3
     0.323532324     0.323235323     0.452857143       2
     0.333432333     0.323334323     0.452857143       3
     0.333333333     0.333333333     0.452857143       2
     0.343233343     0.333432333     0.452857143       3
     0.343134343     0.343431343     0.452857143       2
     0.353034353     0.343530344     0.452857143       3
     0.352935353     0.353529354     0.452857143       2
     0.362835363     0.353628354     0.452857143       3
     0.362736363     0.363627364     0.452857143       2
     0.372636373     0.363726364     0.452857143       3
     0.372537373     0.373725374     0.452857143       2
     0.382437382     0.373824374     0.452857143       3
     0.382338382     0.383823384     0.452857143       2
     0.392238392     0.383922384     0.452857143       3
     0.392139392     0.393921394     0.452857143       2
     0.402039402     0.394020394     0.452857143       3
     0.401940402     0.404019404     0.452857143       2
     0.411840412     0.404118404     0.452857143       3
     0.411741412     0.414117414     0.452857143       2
     0.421641422     0.414216414     0.452857143       3
     0.421542422     0.424215424     0.452857143       2
     0.431442431     0.424314424     0.452857143       3
     0.431343431     0.434313434     0.452857143       2
     0.441243441     0.434412434     0.452857143       3
     0.441144441     0.444411444     0.452857143       2
     0.451044451     0.444510445     0.452857143       3
     0.450945451     0.454509455     0.452857143       2
     0.460845461     0.454608455     0.452857143       3
     0.460746461     0.464607465     0.452857143       2
     0.470646471     0.464706465     0.452857143       3
     0.470547471     0.474705475     0.452857143       2
     0.480447480     0.474804475     0.452857143       3
     0.480348480     0.484803485     0.452857143       2
     0.490248490     0.484902485     0.452857143       3
     0.490149490     0.494901495     0.452857143       2
     0.500049500     0.495000495     0.452857143       3
     0.499950500     0.504999505     0.452857143       2
     0.509850510     0.505098505     0.452857143       3
     0.509751510     0.515097515     0.452857143       2
     0.519651520     0.515196515     0.452857143       3
     0.519552520     0.525195525     0.452857143       2
     0.529452529     0.525294525     0.452857143       3
     0.529353529     0.535293535     0.452857143       2
     0.539253539     0.535392535     0.452857143       3
     0.539154539     0.545391545     0.452857143       2
     0.549054549     0.545490545     0.452857143       3
     0.548955549     0.555489555     0.452857143       2
     0.558855559     0.555588556     0.452857143       3
     0.558756559     0.565587566     0.452857143       2
     0.568656569     0.565686566     0.452857143       3
     0.568557569     0.575685576     0.452857143       2
     0.578457578     0.575784576     0.452857143       3
     0.578358578     0.585783586     0.452857143       2
     0.588258588     0.585882586     0.452857143       3
     0.588159588     0.595881596     0.452857143       2
     0.598059598     0.595980596     0.452857143       3
     0.597960598     0.605979606     0.452857143       2
     0.607860608     0.606078606     0.452857143       3
     0.607761608     0.616077616     0.452857143       2
     0.617661618     0.616176616     0.452857143       3
     0.617562618     0.626175626     0.452857143       2
     0.627462627     0.626274626     0.452857143       3
     0.627363627     0.636273636     0.452857143       2
     0.637263637     0.636372636     0.452857143       3
     0.637164637     0.646371646     0.452857143       2
     0.647064647     0.646470646     0.452857143       3
     0.646965647     0.656469656     0.452857143       2
     0.656865657     0.656568657     0.452857143       3
     0.656766657     0.666567667     0.452857143       2
     0.666666667     0.666666667     0.452857143       3
     0.666567667     0.676665677     0.452857143       2
     0.676467676     0.676764677     0.452857143       3
     0.676368676     0.686763687     0.452857143       2
     0.686268686     0.686862687     0.452857143       3
     0.686169686     0.696861697     0.452857143       2
     0.696069696     0.696960697     0.452857143       3
     0.695970696     0.706959707     0.452857143       2
     0.705870706     0.707058707     0.452857143       3
     0.705771706     0.717057717     0.452857143       2
     0.715671716     0.717156717     0.452857143       3
     0.715572716     0.727155727     0.452857143       2
     0.725472725     0.727254727     0.452857143       3
     0.725373725     0.737253737     0.452857143       2
     0.735273735     0.737352737     0.452857143       3
     0.735174735     0.747351747     0.452857143       2
     0.745074745     0.747450747     0.452857143       3
     0.744975745     0.757449757     0.452857143       2
     0.754875755     0.757548758     0.452857143       3
     0.754776755     0.767547768     0.452857143       2
     0.764676765     0.767646768     0.452857143       3
     0.764577765     0.777645778     0.452857143       2
     0.774477774     0.777744778     0.452857143       3
     0.774378774     0.787743788     0.452857143       2
     0.784278784     0.787842788     0.452857143       3
     0.784179784     0.797841798     0.452857143       2
     0.794079794     0.797940798     0.452857143       3
     0.793980794     0.807939808     0.452857143       2
     0.803880804     0.808038808     0.452857143       3
     0.803781804     0.818037818     0.452857143       2
     0.813681814     0.818136818     0.452857143       3
     0.813582814     0.828135828     0.452857143       2
     0.823482823     0.828234828     0.452857143       3
     0.823383823     0.838233838     0.452857143       2
     0.833283833     0.838332838     0.452857143       3
     0.833184833     0.848331848     0.452857143       2
     0.843084843     0.848430848     0.452857143       3
     0.842985843     0.858429858     0.452857143       2
     0.852885853     0.858528859     0.452857143       3
     0.852786853     0.868527869     0.452857143       2
     0.862686863     0.868626869     0.452857143       3
     0.862587863     0.878625879     0.452857143       2
     0.872487872     0.878724879     0.452857143       3
     0.872388872     0.888723889     0.452857143       2
     0.882288882     0.888822889     0.452857143       3
     0.882189882     0.898821899     0.452857143       2
     0.892089892     0.898920899     0.452857143       3
     0.891990892     0.908919909     0.452857143       2
     0.901890902     0.909018909     0.452857143       3
     0.901791902     0.919017919     0.452857143       2
     0.911691912     0.919116919     0.452857143       3
     0.911592912     0.929115929     0.452857143       2
     0.921492921     0.929214929     0.452857143       3
     0.921393921     0.939213939     0.452857143       2
     0.931293931     0.939312939     0.452857143       3
     0.931194931     0.949311949     0.452857143       2
     0.941094941     0.949410949     0.452857143       3
     0.940995941     0.959409959     0.452857143       2
     0.950895951     0.959508960     0.452857143       3
     0.950796951     0.969507970     0.452857143       2
     0.960696961     0.969606970     0.452857143       3
     0.960597961     0.979605980     0.452857143       2
     0.970497970     0.979704980     0.452857143       3
     0.970398970     0.989703990     0.452857143       2
     0.980298980     0.989802990     0.452857143       3
     0.980199980     0.999802000     0.452857143       2
     0.990099990     0.999901000     0.452857143       3
     0.990000990     0.009900010     0.452857143       2
     0.999901000     0.009999010     0.452857143       3
     0.999802000     0.019998020     0.452857143       2
     0.009702010     0.020097020     0.452857143       3
     0.009603010     0.030096030     0.452857143       2
     0.019503020     0.030195030     0.452857143       3
     0.019404019     0.040194040     0.452857143       2
     0.029304029     0.040293040     0.452857143       3
     0.029205029     0.050292050     0.452857143       2
     0.039105039     0.050391050     0.452857143       3
     0.039006039     0.060390060     0.452857143       2
     0.048906049     0.060489060     0.452857143       3
     0.048807049     0.070488070     0.452857143       2
     0.058707059     0.070587071     0.452857143       3
     0.058608059     0.080586081     0.452857143       2
     0.068508069     0.080685081     0.452857143       3
     0.068409068     0.090684091     0.452857143       2
     0.078309078     0.090783091     0.452857143       3
     0.078210078     0.100782101     0.452857143       2
     0.088110088     0.100881101     0.452857143       3
     0.088011088     0.110880111     0.452857143       2
     0.097911098     0.110979111     0.452857143       3
     0.097812098     0.120978121     0.452857143       2
     0.107712108     0.121077121     0.452857143       3
     0.107613108     0.131076131     0.452857143       2
     0.117513118     0.131175131     0.452857143       3
     0.117414117     0.141174141     0.452857143       2
     0.127314127     0.141273141     0.452857143       3
     0.127215127     0.151272151     0.452857143       2
     0.137115137     0.151371151     0.452857143       3
     0.137016137     0.161370161     0.452857143       2
     0.146916147     0.161469161     0.452857143       3
     0.146817147     0.171468171     0.452857143       2
     0.156717157     0.171567172     0.452857143       3
     0.156618157     0.181566182     0.452857143       2
     0.166518167     0.181665182     0.452857143       3
     0.166419166     0.191664192     0.452857143       2
     0.176319176     0.191763192     0.452857143       3
     0.176220176     0.201762202     0.452857143       2
     0.186120186     0.201861202     0.452857143       3
     0.186021186     0.211860212     0.452857143       2
     0.195921196     0.211959212     0.452857143       3
     0.195822196     0.221958222     0.452857143       2
     0.205722206     0.222057222     0.452857143       3
     0.205623206     0.232056232     0.452857143       2
     0.215523216     0.232155232     0.452857143       3
     0.215424215     0.242154242     0.452857143       2
     0.225324225     0.242253242     0.452857143       3
     0.225225225     0.252252252     0.452857143       2
     0.235125235     0.252351252     0.452857143       3
     0.235026235     0.262350262     0.452857143       2
     0.244926245     0.262449262     0.452857143       3
     0.244827245     0.272448272     0.452857143       2
     0.254727255     0.272547273     0.452857143       3
     0.254628255     0.282546283     0.452857143       2
     0.264528265     0.282645283     0.452857143       3
     0.264429264     0.292644293     0.452857143       2
     0.274329274     0.292743293     0.452857143       3
     0.274230274     0.302742303     0.452857143       2
     0.284130284     0.302841303     0.452857143       3
     0.284031284     0.312840313     0.452857143       2
     0.293931294     0.312939313     0.452857143       3
     0.293832294     0.322938323     0.452857143       2
     0.303732304     0.323037323     0.452857143       3
     0.303633304     0.333036333     0.452857143       2
     0.313533314     0.333135333     0.452857143       3
     0.313434313     0.343134343     0.452857143       2
     0.323334323     0.343233343     0.452857143       3
     0.323235323     0.353232353     0.452857143       2
     0.333135333     0.353331353     0.452857143       3
     0.333036333     0.363330363     0.452857143       2
     0.342936343     0.363429363     0.452857143       3
     0.342837343     0.373428373     0.452857143       2
     0.352737353     0.373527374     0.452857143       3
     0.352638353     0.383526384     0.452857143       2
     0.362538363     0.383625384     0.452857143       3
     0.362439362     0.393624394     0.452857143       2
     0.372339372     0.393723394     0.452857143       3
     0.372240372     0.403722404     0.452857143       2
     0.382140382     0.403821404     0.452857143       3
     0.382041382     0.413820414     0.452857143       2
     0.391941392     0.413919414     0.452857143       3
     0.391842392     0.423918424     0.452857143       2
     0.401742402     0.424017424     0.452857143       3
     0.401643402     0.434016434     0.452857143       2
     0.411543412     0.434115434     0.452857143       3
     0.411444411     0.444114444     0.452857143       2
     0.421344421     0.444213444     0.452857143       3
     0.421245421     0.454212454     0.452857143       2
     0.431145431     0.454311454     0.452857143       3
     0.431046431     0.464310464     0.452857143       2
     0.440946441     0.464409464     0.452857143       3
     0.440847441     0.474408474     0.452857143       2
     0.450747451     0.474507475     0.452857143       3
     0.450648451     0.484506485     0.452857143       2
     0.460548461     0.484605485     0.452857143       3
     0.460449460     0.494604495     0.452857143       2
     0.470349470     0.494703495     0.452857143       3
     0.470250470     0.504702505     0.452857143       2
     0.480150480     0.504801505     0.452857143       3
     0.480051480     0.514800515     0.452857143       2
     0.489951490     0.514899515     0.452857143       3
     0.489852490     0.524898525     0.452857143       2
     0.499752500     0.524997525     0.452857143       3
     0.499653500     0.534996535     0.452857143       2
     0.509553510     0.535095535     0.452857143       3
     0.509454509     0.545094545     0.452857143       2
     0.519354519     0.545193545     0.452857143       3
     0.519255519     0.555192555     0.452857143       2
     0.529155529     0.555291555     0.452857143       3
     0.529056529     0.565290565     0.452857143       2
     0.538956539     0.565389565     0.452857143       3
     0.538857539     0.575388575     0.452857143       2
     0.548757549     0.575487575     0.452857143       3
     0.548658549     0.585486585     0.452857143       2
     0.558558559     0.585585586     0.452857143       3
     0.558459558     0.595584596     0.452857143       2
     0.568359568     0.595683596     0.452857143       3
     0.568260568     0.605682606     0.452857143       2
     0.578160578     0.605781606     0.452857143       3
     0.578061578     0.615780616     0.452857143       2
     0.587961588     0.615879616     0.452857143       3
     0.587862588     0.625878626     0.452857143       2
     0.597762598     0.625977626     0.452857143       3
     0.597663598     0.635976636     0.452857143       2
     0.607563608     0.636075636     0.452857143       3
     0.607464607     0.646074646     0.452857143       2
     0.617364617     0.646173646     0.452857143       3
     0.617265617     0.656172656     0.452857143       2
     0.627165627     0.656271656     0.452857143       3
     0.627066627     0.666270666     0.452857143       2
     0.636966637     0.666369666     0.452857143       3
     0.636867637     0.676368676     0.452857143       2
     0.646767647     0.676467676     0.452857143       3
     0.646668647     0.686466686     0.452857143       2
     0.656568657     0.686565687     0.452857143       3
     0.656469656     0.696564697     0.452857143       2
     0.666369666     0.696663697     0.452857143       3
     0.666270666     0.706662707     0.452857143       2
     0.676170676     0.706761707     0.452857143       3
     0.676071676     0.716760717     0.452857143       2
     0.685971686     0.716859717     0.452857143       3
     0.685872686     0.726858727     0.452857143       2
     0.695772696     0.726957727     0.452857143       3
     0.695673696     0.736956737     0.452857143       2
     0.705573706     0.737055737     0.452857143       3
     0.705474705     0.747054747     0.452857143       2
     0.715374715     0.747153747     0.452857143       3
     0.715275715     0.757152757     0.452857143       2
     0.725175725     0.757251757     0.452857143       3
     0.725076725     0.767250767     0.452857143       2
     0.734976735     0.767349767     0.452857143       3
     0.734877735     0.777348777     0.452857143       2
     0.744777745     0.777447777     0.452857143       3
     0.744678745     0.787446787     0.452857143       2
     0.754578755     0.787545788     0.452857143       3
     0.754479754     0.797544798     0.452857143       2
     0.764379764     0.797643798     0.452857143       3
     0.764280764     0.807642808     0.452857143       2
     0.774180774     0.807741808     0.452857143       3
     0.774081774     0.817740818     0.452857143       2
     0.783981784     0.817839818     0.452857143       3
     0.783882784     0.827838828     0.452857143       2
     0.793782794     0.827937828     0.452857143       3
     0.793683794     0.837936838     0.452857143       2
     0.803583804     0.838035838     0.452857143       3
     0.803484803     0.848034848     0.452857143       2
     0.813384813     0.848133848     0.452857143       3
     0.813285813     0.858132858     0.452857143       2
     0.823185823     0.858231858     0.452857143       3
     0.823086823     0.868230868     0.452857143       2
     0.832986833     0.868329868     0.452857143       3
     0.832887833     0.878328878     0.452857143       2
     0.842787843     0.878427878     0.452857143       3
     0.842688843     0.888426888     0.452857143       2
     0.852588853     0.888525889     0.452857143       3
     0.852489852     0.898524899     0.452857143       2
     0.862389862     0.898623899     0.452857143       3
     0.862290862     0.908622909     0.452857143       2
     0.872190872     0.908721909     0.452857143       3
     0.872091872     0.918720919     0.452857143       2
     0.881991882     0.918819919     0.452857143       3
     0.881892882     0.928818929     0.452857143       2
     0.891792892     0.928917929     0.452857143       3
     0.891693892     0.938916939     0.452857143       2
     0.901593902     0.939015939     0.452857143       3
     0.901494901     0.949014949     0.452857143       2
     0.911394911     0.949113949     0.452857143       3
     0.911295911     0.959112959     0.452857143       2
     0.921195921     0.959211959     0.452857143       3
     0.921096921     0.969210969     0.452857143       2
     0.930996931     0.969309969     0.452857143       3
     0.930897931     0.979308979     0.452857143       2
     0.940797941     0.979407979     0.452857143       3
     0.940698941     0.989406989     0.452857143       2
     0.950598951     0.989505990     0.452857143       3
     0.950499950     0.999505000     0.452857143       2
     0.960399960     0.999604000     0.452857143       3
     0.960300960     0.009603010     0.452857143       2
     0.970200970     0.009702010     0.452857143       3
     0.970101970     0.019701020     0.452857143       2
     0.980001980     0.019800020     0.452857143       3
     0.979902980     0.029799030     0.452857143       2
     0.989802990     0.029898030     0.452857143       3
     0.989703990     0.039897040     0.452857143       2
     0.999604000     0.039996040     0.452857143       3
     0.999505000     0.049995050     0.452857143       2
     0.009405009     0.050094050     0.452857143       3
     0.009306009     0.060093060     0.452857143       2
     0.019206019     0.060192060     0.452857143       3
     0.019107019     0.070191070     0.452857143       2
     0.029007029     0.070290070     0.452857143       3
     0.028908029     0.080289080     0.452857143       2
     0.038808039     0.080388080     0.452857143       3
     0.038709039     0.090387090     0.452857143       2
     0.048609049     0.090486090     0.452857143       3
     0.048510049     0.100485100     0.452857143       2
     0.058410058     0.100584101     0.452857143       3
     0.058311058     0.110583111     0.452857143       2
     0.068211068     0.110682111     0.452857143       3
     0.068112068     0.120681121     0.452857143       2
     0.078012078     0.120780121     0.452857143       3
     0.077913078     0.130779131     0.452857143       2
     0.087813088     0.130878131     0.452857143       3
     0.087714088     0.140877141     0.452857143       2
     0.097614098     0.140976141     0.452857143       3
     0.097515098     0.150975151     0.452857143       2
     0.107415107     0.151074151     0.452857143       3
     0.107316107     0.161073161     0.452857143       2
     0.117216117     0.161172161     0.452857143       3
     0.117117117     0.171171171     0.452857143       2
     0.127017127     0.171270171     0.452857143       3
     0.126918127     0.181269181     0.452857143       2
     0.136818137     0.181368181     0.452857143       3
     0.136719137     0.191367191     0.452857143       2
     0.146619147     0.191466191     0.452857143       3
     0.146520147     0.201465201     0.452857143       2
     0.156420156     0.201564202     0.452857143       3
     0.156321156     0.211563212     0.452857143       2
     0.166221166     0.211662212     0.452857143       3
     0.166122166     0.221661222     0.452857143       2
     0.176022176     0.221760222     0.452857143       3
     0.175923176     0.231759232     0.452857143       2
     0.185823186     0.231858232     0.452857143       3
     0.185724186     0.241857242     0.452857143       2
     0.195624196     0.241956242     0.452857143       3
     0.195525196     0.251955252     0.452857143       2
     0.205425205     0.252054252     0.452857143       3
     0.205326205     0.262053262     0.452857143       2
     0.215226215     0.262152262     0.452857143       3
     0.215127215     0.272151272     0.452857143       2
     0.225027225     0.272250272     0.452857143       3
     0.224928225     0.282249282     0.452857143       2
     0.234828235     0.282348282     0.452857143       3
     0.234729235     0.292347292     0.452857143       2
     0.244629245     0.292446292     0.452857143       3
     0.244530245     0.302445302     0.452857143       2
     0.254430254     0.302544303     0.452857143       3
     0.254331254     0.312543313     0.452857143       2
     0.264231264     0.312642313     0.452857143       3
     0.264132264     0.322641323     0.452857143       2
     0.274032274     0.322740323     0.452857143       3
     0.273933274     0.332739333     0.452857143       2
     0.283833284     0.332838333     0.452857143       3
     0.283734284     0.342837343     0.452857143       2
     0.293634294     0.342936343     0.452857143       3
     0.293535294     0.352935353     0.452857143       2
     0.303435303     0.353034353     0.452857143       3
     0.303336303     0.363033363     0.452857143       2
     0.313236313     0.363132363     0.452857143       3
     0.313137313     0.373131373     0.452857143       2
     0.323037323     0.373230373     0.452857143       3
     0.322938323     0.383229383     0.452857143       2
     0.332838333     0.383328383     0.452857143       3
     0.332739333     0.393327393     0.452857143       2
     0.342639343     0.393426393     0.452857143       3
     0.342540343     0.403425403     0.452857143       2
     0.352440352     0.403524404     0.452857143       3
     0.352341352     0.413523414     0.452857143       2
     0.362241362     0.413622414     0.452857143       3
     0.362142362     0.423621424     0.452857143       2
     0.372042372     0.423720424     0.452857143       3
     0.371943372     0.433719434     0.452857143       2
     0.381843382     0.433818434     0.452857143       3
     0.381744382     0.443817444     0.452857143       2
     0.391644392     0.443916444     0.452857143       3
     0.391545392     0.453915454     0.452857143       2
     0.401445401     0.454014454     0.452857143       3
     0.401346401     0.464013464     0.452857143       2
     0.411246411     0.464112464     0.452857143       3
     0.411147411     0.474111474     0.452857143       2
     0.421047421     0.474210474     0.452857143       3
     0.420948421     0.484209484     0.452857143       2
     0.430848431     0.484308484     0.452857143       3
     0.430749431     0.494307494     0.452857143       2
     0.440649441     0.494406494     0.452857143       3
     0.440550441     0.504405504     0.452857143       2
     0.450450450     0.504504505     0.452857143       3
     0.450351450     0.514503515     0.452857143       2
     0.460251460     0.514602515     0.452857143       3
     0.460152460     0.524601525     0.452857143       2
     0.470052470     0.524700525     0.452857143       3
     0.469953470     0.534699535     0.452857143       2
     0.479853480     0.534798535     0.452857143       3
     0.479754480     0.544797545     0.452857143       2
     0.489654490     0.544896545     0.452857143       3
     0.489555490     0.554895555     0.452857143       2
     0.499455499     0.554994555     0.452857143       3
     0.499356499     0.564993565     0.452857143       2
     0.509256509     0.565092565     0.452857143       3
     0.509157509     0.575091575     0.452857143       2
     0.519057519     0.575190575     0.452857143       3
     0.518958519     0.585189585     0.452857143       2
     0.528858529     0.585288585     0.452857143       3
     0.528759529     0.595287595     0.452857143       2
     0.538659539     0.595386595     0.452857143       3
     0.538560539     0.605385605     0.452857143       2
     0.548460548     0.605484605     0.452857143       3
     0.548361548     0.615483615     0.452857143       2
     0.558261558     0.615582616     0.452857143       3
     0.558162558     0.625581626     0.452857143       2
     0.568062568     0.625680626     0.452857143       3
     0.567963568     0.635679636     0.452857143       2
     0.577863578     0.635778636     0.452857143       3
     0.577764578     0.645777646     0.452857143       2
     0.587664588     0.645876646     0.452857143       3
     0.587565588     0.655875656     0.452857143       2
     0.597465597     0.655974656     0.452857143       3
     0.597366597     0.665973666     0.452857143       2
     0.607266607     0.666072666     0.452857143       3
     0.607167607     0.676071676     0.452857143       2
     0.617067617     0.676170676     0.452857143       3
     0.616968617     0.686169686     0.452857143       2
     0.626868627     0.686268686     0.452857143       3
     0.626769627     0.696267696     0.452857143       2
     0.636669637     0.696366696     0.452857143       3
     0.636570637     0.706365706     0.452857143       2
     0.646470646     0.706464706     0.452857143       3
     0.646371646     0.716463716     0.452857143       2
     0.656271656     0.716562717     0.452857143       3
     0.656172656     0.726561727     0.452857143       2
     0.666072666     0.726660727     0.452857143       3
     0.665973666     0.736659737     0.452857143       2
     0.675873676     0.736758737     0.452857143       3
     0.675774676     0.746757747     0.452857143       2
     0.685674686     0.746856747     0.452857143       3
     0.685575686     0.756855757     0.452857143       2
     0.695475695     0.756954757     0.452857143       3
     0.695376695     0.766953767     0.452857143       2
     0.705276705     0.767052767     0.452857143       3
     0.705177705     0.777051777     0.452857143       2
     0.715077715     0.777150777     0.452857143       3
     0.714978715     0.787149787     0.452857143       2
     0.724878725     0.787248787     0.452857143       3
     0.724779725     0.797247797     0.452857143       2
     0.734679735     0.797346797     0.452857143       3
     0.734580735     0.807345807     0.452857143       2
     0.744480744     0.807444807     0.452857143       3
     0.744381744     0.817443817     0.452857143       2
     0.754281754     0.817542818     0.452857143       3
     0.754182754     0.827541828     0.452857143       2
     0.764082764     0.827640828     0.452857143       3
     0.763983764     0.837639838     0.452857143       2
     0.773883774     0.837738838     0.452857143       3
     0.773784774     0.847737848     0.452857143       2
     0.783684784     0.847836848     0.452857143       3
     0.783585784     0.857835858     0.452857143       2
     0.793485793     0.857934858     0.452857143       3
     0.793386793     0.867933868     0.452857143       2
     0.803286803     0.868032868     0.452857143       3
     0.803187803     0.878031878     0.452857143       2
     0.813087813     0.878130878     0.452857143       3
     0.812988813     0.888129888     0.452857143       2
     0.822888823     0.888228888     0.452857143       3
     0.822789823     0.898227898     0.452857143       2
     0.832689833     0.898326898     0.452857143       3
     0.832590833     0.908325908     0.452857143       2
     0.842490842     0.908424908     0.452857143       3
     0.842391842     0.918423918     0.452857143       2
     0.852291852     0.918522919     0.452857143       3
     0.852192852     0.928521929     0.452857143       2
     0.862092862     0.928620929     0.452857143       3
     0.861993862     0.938619939     0.452857143       2
     0.871893872     0.938718939     0.452857143       3
     0.871794872     0.948717949     0.452857143       2
     0.881694882     0.948816949     0.452857143       3
     0.881595882     0.958815959     0.452857143       2
     0.891495891     0.958914959     0.452857143       3
     0.891396891     0.968913969     0.452857143       2
     0.901296901     0.969012969     0.452857143       3
     0.901197901     0.979011979     0.452857143       2
     0.911097911     0.979110979     0.452857143       3
     0.910998911     0.989109989     0.452857143       2
     0.920898921     0.989208989     0.452857143       3
     0.920799921     0.999207999     0.452857143       2
     0.930699931     0.999306999     0.452857143       3
     0.930600931     0.009306009     0.452857143       2
     0.940500941     0.009405009     0.452857143       3
     0.940401940     0.019404019     0.452857143       2
     0.950301950     0.019503020     0.452857143       3
     0.950202950     0.029502030     0.452857143       2
     0.960102960     0.029601030     0.452857143       3
     0.960003960     0.039600040     0.452857143       2
     0.969903970     0.039699040     0.452857143       3
     0.969804970     0.049698050     0.452857143       2
     0.979704980     0.049797050     0.452857143       3
     0.979605980     0.059796060     0.452857143       2
     0.989505990     0.059895060     0.452857143       3
     0.989406989     0.069894070     0.452857143       2
     0.999306999     0.069993070     0.452857143       3
     0.999207999     0.079992080     0.452857143       2
     0.009108009     0.080091080     0.452857143       3
     0.009009009     0.090090090     0.452857143       2
     0.018909019     0.090189090     0.452857143       3
     0.018810019     0.100188100     0.452857143       2
     0.028710029     0.100287100     0.452857143       3
     0.028611029     0.110286110     0.452857143       2
     0.038511039     0.110385110     0.452857143       3
     0.038412038     0.120384120     0.452857143       2
     0.048312048     0.120483120     0.452857143       3
     0.048213048     0.130482130     0.452857143       2
     0.058113058     0.130581131     0.452857143       3
     0.058014058     0.140580141     0.452857143       2
     0.067914068     0.140679141     0.452857143       3
     0.067815068     0.150678151     0.452857143       2
     0.077715078     0.150777151     0.452857143       3
     0.077616078     0.160776161     0.452857143       2
     0.087516088     0.160875161     0.452857143       3
     0.087417087     0.170874171     0.452857143       2
     0.097317097     0.170973171     0.452857143       3
     0.097218097     0.180972181     0.452857143       2
     0.107118107     0.181071181     0.452857143       3
     0.107019107     0.191070191     0.452857143       2
     0.116919117     0.191169191     0.452857143       3
     0.116820117     0.201168201     0.452857143       2
     0.126720127     0.201267201     0.452857143       3
     0.126621127     0.211266211     0.452857143       2
     0.136521137     0.211365211     0.452857143       3
     0.136422136     0.221364221     0.452857143       2
     0.146322146     0.221463221     0.452857143       3
     0.146223146     0.231462231     0.452857143       2
     0.156123156     0.231561232     0.452857143       3
     0.156024156     0.241560242     0.452857143       2
     0.165924166     0.241659242     0.452857143       3
     0.165825166     0.251658252     0.452857143       2
     0.175725176     0.251757252     0.452857143       3
     0.175626176     0.261756262     0.452857143       2
     0.185526186     0.261855262     0.452857143       3
     0.185427185     0.271854272     0.452857143       2
     0.195327195     0.271953272     0.452857143       3
     0.195228195     0.281952282     0.452857143       2
     0.205128205     0.282051282     0.452857143       3
     0.205029205     0.292050292     0.452857143       2
     0.214929215     0.292149292     0.452857143       3
     0.214830215     0.302148302     0.452857143       2
     0.224730225     0.302247302     0.452857143       3
     0.224631225     0.312246312     0.452857143       2
     0.234531235     0.312345312     0.452857143       3
     0.234432234     0.322344322     0.452857143       2
     0.244332244     0.322443322     0.452857143       3
     0.244233244     0.332442332     0.452857143       2
     0.254133254     0.332541333     0.452857143       3
     0.254034254     0.342540343     0.452857143       2
     0.263934264     0.342639343     0.452857143       3
     0.263835264     0.352638353     0.452857143       2
     0.273735274     0.352737353     0.452857143       3
     0.273636274     0.362736363     0.452857143       2
     0.283536284     0.362835363     0.452857143       3
     0.283437283     0.372834373     0.452857143       2
     0.293337293     0.372933373     0.452857143       3
     0.293238293     0.382932383     0.452857143       2
     0.303138303     0.383031383     0.452857143       3
     0.303039303     0.393030393     0.452857143       2
     0.312939313     0.393129393     0.452857143       3
     0.312840313     0.403128403     0.452857143       2
     0.322740323     0.403227403     0.452857143       3
     0.322641323     0.413226413     0.452857143       2
     0.332541333     0.413325413     0.452857143       3
     0.332442332     0.423324423     0.452857143       2
     0.342342342     0.423423423     0.452857143       3
     0.342243342     0.433422433     0.452857143       2
     0.352143352     0.433521434     0.452857143       3
     0.352044352     0.443520444     0.452857143       2
     0.361944362     0.443619444     0.452857143       3
     0.361845362     0.453618454     0.452857143       2
     0.371745372     0.453717454     0.452857143       3
     0.371646372     0.463716464     0.452857143       2
     0.381546382     0.463815464     0.452857143       3
     0.381447381     0.473814474     0.452857143       2
     0.391347391     0.473913474     0.452857143       3
     0.391248391     0.483912484     0.452857143       2
     0.401148401     0.484011484     0.452857143       3
     0.401049401     0.494010494     0.452857143       2
     0.410949411     0.494109494     0.452857143       3
     0.410850411     0.504108504     0.452857143       2
     0.420750421     0.504207504     0.452857143       3
     0.420651421     0.514206514     0.452857143       2
     0.430551431     0.514305514     0.452857143       3
     0.430452430     0.524304524     0.452857143       2
     0.440352440     0.524403524     0.452857143       3
     0.440253440     0.534402534     0.452857143       2
     0.450153450     0.534501535     0.452857143       3
     0.450054450     0.544500545     0.452857143       2
     0.459954460     0.544599545     0.452857143       3
     0.459855460     0.554598555     0.452857143       2
     0.469755470     0.554697555     0.452857143       3
     0.469656470     0.564696565     0.452857143       2
     0.479556480     0.564795565     0.452857143       3
     0.479457479     0.574794575     0.452857143       2
     0.489357489     0.574893575     0.452857143       3
     0.489258489     0.584892585     0.452857143       2
     0.499158499     0.584991585     0.452857143       3
     0.499059499     0.594990595     0.452857143       2
     0.508959509     0.595089595     0.452857143       3
     0.508860509     0.605088605     0.452857143       2
     0.518760519     0.605187605     0.452857143       3
     0.518661519     0.615186615     0.452857143       2
     0.528561529     0.615285615     0.452857143       3
     0.528462528     0.625284625     0.452857143       2
     0.538362538     0.625383625     0.452857143       3
     0.538263538     0.635382635     0.452857143       2
     0.548163548     0.635481635     0.452857143       3
     0.548064548     0.645480645     0.452857143       2
     0.557964558     0.645579646     0.452857143       3
     0.557865558     0.655578656     0.452857143       2
     0.567765568     0.655677656     0.452857143       3
     0.567666568     0.665676666     0.452857143       2
     0.577566578     0.665775666     0.452857143       3
     0.577467577     0.675774676     0.452857143       2
     0.587367587     0.675873676     0.452857143       3
     0.587268587     0.685872686     0.452857143       2
     0.597168597     0.685971686     0.452857143       3
     0.597069597     0.695970696     0.452857143       2
     0.606969607     0.696069696     0.452857143       3
     0.606870607     0.706068706     0.452857143       2
     0.616770617     0.706167706     0.452857143       3
     0.616671617     0.716166716     0.452857143       2
     0.626571627     0.716265716     0.452857143       3
     0.626472626     0.726264726     0.452857143       2
     0.636372636     0.726363726     0.452857143       3
     0.636273636     0.736362736     0.452857143       2
     0.646173646     0.736461736     0.452857143       3
     0.646074646     0.746460746     0.452857143       2
     0.655974656     0.746559747     0.452857143       3
     0.655875656     0.756558757     0.452857143       2
     0.665775666     0.756657757     0.452857143       3
     0.665676666     0.766656767     0.452857143       2
     0.675576676     0.766755767     0.452857143       3
     0.675477675     0.776754777     0.452857143       2
     0.685377685     0.776853777     0.452857143       3
     0.685278685     0.786852787     0.452857143       2
     0.695178695     0.786951787     0.452857143       3
     0.695079695     0.796950797     0.452857143       2
     0.704979705     0.797049797     0.452857143       3
     0.704880705     0.807048807     0.452857143       2
     0.714780715     0.807147807     0.452857143       3
     0.714681715     0.817146817     0.452857143       2
     0.724581725     0.817245817     0.452857143       3
     0.724482724     0.827244827     0.452857143       2
     0.734382734     0.827343827     0.452857143       3
     0.734283734     0.837342837     0.452857143       2
     0.744183744     0.837441837     0.452857143       3
     0.744084744     0.847440847     0.452857143       2
     0.753984754     0.847539848     0.452857143       3
     0.753885754     0.857538858     0.452857143       2
     0.763785764     0.857637858     0.452857143       3
     0.763686764     0.867636868     0.452857143       2
     0.773586774     0.867735868     0.452857143       3
     0.773487773     0.877734878     0.452857143       2
     0.783387783     0.877833878     0.452857143       3
     0.783288783     0.887832888     0.452857143       2
     0.793188793     0.887931888     0.452857143       3
     0.793089793     0.897930898     0.452857143       2
     0.802989803     0.898029898     0.452857143       3
     0.802890803     0.908028908     0.452857143       2
     0.812790813     0.908127908     0.452857143       3
     0.812691813     0.918126918     0.452857143       2
     0.822591823     0.918225918     0.452857143       3
     0.822492822     0.928224928     0.452857143       2
     0.832392832     0.928323928     0.452857143       3
     0.832293832     0.938322938     0.452857143       2
     0.842193842     0.938421938     0.452857143       3
     0.842094842     0.948420948     0.452857143       2
     0.851994852     0.948519949     0.452857143       3
     0.851895852     0.958518959     0.452857143       2
     0.861795862     0.958617959     0.452857143       3
     0.861696862     0.968616969     0.452857143       2
     0.871596872     0.968715969     0.452857143       3
     0.871497871     0.978714979     0.452857143       2
     0.881397881     0.978813979     0.452857143       3
     0.881298881     0.988812989     0.452857143       2
     0.891198891     0.988911989     0.452857143       3
     0.891099891     0.998910999     0.452857143       2
     0.900999901     0.999009999     0.452857143       3
     0.900900901     0.009009009     0.452857143       2
     0.910800911     0.009108009     0.452857143       3
     0.910701911     0.019107019     0.452857143       2
     0.920601921     0.019206019     0.452857143       3
     0.920502921     0.029205029     0.452857143       2
     0.930402930     0.029304029     0.452857143       3
     0.930303930     0.039303039     0.452857143       2
     0.940203940     0.039402039     0.452857143       3
     0.940104940     0.049401049     0.452857143       2
     0.950004950     0.049500050     0.452857143       3
     0.949905950     0.059499059     0.452857143       2
     0.959805960     0.059598060     0.452857143       3
     0.959706960     0.069597070     0.452857143       2
     0.969606970     0.069696070     0.452857143       3
     0.969507970     0.079695080     0.452857143       2
     0.979407979     0.079794080     0.452857143       3
     0.979308979     0.089793090     0.452857143       2
     0.989208989     0.089892090     0.452857143       3
     0.989109989     0.099891100     0.452857143       2
     0.999009999     0.099990100     0.452857143       3
     0.998910999     0.109989110     0.452857143       2
     0.008811009     0.110088110     0.452857143       3
     0.008712009     0.120087120     0.452857143       2
     0.018612019     0.120186120     0.452857143       3
     0.018513019     0.130185130     0.452857143       2
     0.028413028     0.130284130     0.452857143       3
     0.028314028     0.140283140     0.452857143       2
     0.038214038     0.140382140     0.452857143       3
     0.038115038     0.150381150     0.452857143       2
     0.048015048     0.150480150     0.452857143       3
     0.047916048     0.160479160     0.452857143       2
     0.057816058     0.160578161     0.452857143       3
     0.057717058     0.170577171     0.452857143       2
     0.067617068     0.170676171     0.452857143       3
     0.067518068     0.180675181     0.452857143       2
     0.077418077     0.180774181     0.452857143       3
     0.077319077     0.190773191     0.452857143       2
     0.087219087     0.190872191     0.452857143       3
     0.087120087     0.200871201     0.452857143       2
     0.097020097     0.200970201     0.452857143       3
     0.096921097     0.210969211     0.452857143       2
     0.106821107     0.211068211     0.452857143       3
     0.106722107     0.221067221     0.452857143       2
     0.116622117     0.221166221     0.452857143       3
     0.116523117     0.231165231     0.452857143       2
     0.126423126     0.231264231     0.452857143       3
     0.126324126     0.241263241     0.452857143       2
     0.136224136     0.241362241     0.452857143       3
     0.136125136     0.251361251     0.452857143       2
     0.146025146     0.251460251     0.452857143       3
     0.145926146     0.261459261     0.452857143       2
     0.155826156     0.261558262     0.452857143       3
     0.155727156     0.271557272     0.452857143       2
     0.165627166     0.271656272     0.452857143       3
     0.165528166     0.281655282     0.452857143       2
     0.175428175     0.281754282     0.452857143       3
     0.175329175     0.291753292     0.452857143       2
     0.185229185     0.291852292     0.452857143       3
     0.185130185     0.301851302     0.452857143       2
     0.195030195     0.301950302     0.452857143       3
     0.194931195     0.311949312     0.452857143       2
     0.204831205     0.312048312     0.452857143       3
     0.204732205     0.322047322     0.452857143       2
     0.214632215     0.322146322     0.452857143       3
     0.214533215     0.332145332     0.452857143       2
     0.224433224     0.332244332     0.452857143       3
     0.224334224     0.342243342     0.452857143       2
     0.234234234     0.342342342     0.452857143       3
     0.234135234     0.352341352     0.452857143       2
     0.244035244     0.352440352     0.452857143       3
     0.243936244     0.362439362     0.452857143       2
     0.253836254     0.362538363     0.452857143       3
     0.253737254     0.372537373     0.452857143       2
     0.263637264     0.372636373     0.452857143       3
     0.263538264     0.382635383     0.452857143       2
     0.273438273     0.382734383     0.452857143       3
     0.273339273     0.392733393     0.452857143       2
     0.283239283     0.392832393     0.452857143       3
     0.283140283     0.402831403     0.452857143       2
     0.293040293     0.402930403     0.452857143       3
     0.292941293     0.412929413     0.452857143       2
     0.302841303     0.413028413     0.452857143       3
     0.302742303     0.423027423     0.452857143       2
     0.312642313     0.423126423     0.452857143       3
     0.312543313     0.433125433     0.452857143       2
     0.322443322     0.433224433     0.452857143       3
     0.322344322     0.443223443     0.452857143       2
     0.332244332     0.443322443     0.452857143       3
     0.332145332     0.453321453     0.452857143       2
     0.342045342     0.453420453     0.452857143       3
     0.341946342     0.463419463     0.452857143       2
     0.351846352     0.463518464     0.452857143       3
     0.351747352     0.473517474     0.452857143       2
     0.361647362     0.473616474     0.452857143       3
     0.361548362     0.483615484     0.452857143       2
     0.371448371     0.483714484     0.452857143       3
     0.371349371     0.493713494     0.452857143       2
     0.381249381     0.493812494     0.452857143       3
     0.381150381     0.503811504     0.452857143       2
     0.391050391     0.503910504     0.452857143       3
     0.390951391     0.513909514     0.452857143       2
     0.400851401     0.514008514     0.452857143       3
     0.400752401     0.524007524     0.452857143       2
     0.410652411     0.524106524     0.452857143       3
     0.410553411     0.534105534     0.452857143       2
     0.420453420     0.534204534     0.452857143       3
     0.420354420     0.544203544     0.452857143       2
     0.430254430     0.544302544     0.452857143       3
     0.430155430     0.554301554     0.452857143       2
     0.440055440     0.554400554     0.452857143       3
     0.439956440     0.564399564     0.452857143       2
     0.449856450     0.564498564     0.452857143       3
     0.449757450     0.574497574     0.452857143       2
     0.459657460     0.574596575     0.452857143       3
     0.459558460     0.584595585     0.452857143       2
     0.469458469     0.584694585     0.452857143       3
     0.469359469     0.594693595     0.452857143       2
     0.479259479     0.594792595     0.452857143       3
     0.479160479     0.604791605     0.452857143       2
     0.489060489     0.604890605     0.452857143       3
     0.488961489     0.614889615     0.452857143       2
     0.498861499     0.614988615     0.452857143       3
     0.498762499     0.624987625     0.452857143       2
     0.508662509     0.625086625     0.452857143       3
     0.508563509     0.635085635     0.452857143       2
     0.518463518     0.635184635     0.452857143       3
     0.518364518     0.645183645     0.452857143       2
     0.528264528     0.645282645     0.452857143       3
     0.528165528     0.655281655     0.452857143       2
     0.538065538     0.655380655     0.452857143       3
     0.537966538     0.665379665     0.452857143       2
     0.547866548     0.665478665     0.452857143       3
     0.547767548     0.675477675     0.452857143       2
     0.557667558     0.675576676     0.452857143       3
     0.557568558     0.685575686     0.452857143       2
     0.567468567     0.685674686     0.452857143       3
     0.567369567     0.695673696     0.452857143       2
     0.577269577     0.695772696     0.452857143       3
     0.577170577     0.705771706     0.452857143       2
     0.587070587     0.705870706     0.452857143       3
     0.586971587     0.715869716     0.452857143       2
     0.596871597     0.715968716     0.452857143       3
     0.596772597     0.725967726     0.452857143       2
     0.606672607     0.726066726     0.452857143       3
     0.606573607     0.736065736     0.452857143       2
     0.616473616     0.736164736     0.452857143       3
     0.616374616     0.746163746     0.452857143       2
     0.626274626     0.746262746     0.452857143       3
     0.626175626     0.756261756     0.452857143       2
     0.636075636     0.756360756     0.452857143       3
     0.635976636     0.766359766     0.452857143       2
     0.645876646     0.766458766     0.452857143       3
     0.645777646     0.776457776     0.452857143       2
     0.655677656     0.776556777     0.452857143       3
     0.655578656     0.786555787     0.452857143       2
     0.665478665     0.786654787     0.452857143       3
     0.665379665     0.796653797     0.452857143       2
     0.675279675     0.796752797     0.452857143       3
     0.675180675     0.806751807     0.452857143       2
     0.685080685     0.806850807     0.452857143       3
     0.684981685     0.816849817     0.452857143       2
     0.694881695     0.816948817     0.452857143       3
     0.694782695     0.826947827     0.452857143       2
     0.704682705     0.827046827     0.452857143       3
     0.704583705     0.837045837     0.452857143       2
     0.714483714     0.837144837     0.452857143       3
     0.714384714     0.847143847     0.452857143       2
     0.724284724     0.847242847     0.452857143       3
     0.724185724     0.857241857     0.452857143       2
     0.734085734     0.857340857     0.452857143       3
     0.733986734     0.867339867     0.452857143       2
     0.743886744     0.867438867     0.452857143       3
     0.743787744     0.877437877     0.452857143       2
     0.753687754     0.877536878     0.452857143       3
     0.753588754     0.887535888     0.452857143       2
     0.763488763     0.887634888     0.452857143       3
     0.763389763     0.897633898     0.452857143       2
     0.773289773     0.897732898     0.452857143       3
     0.773190773     0.907731908     0.452857143       2
     0.783090783     0.907830908     0.452857143       3
     0.782991783     0.917829918     0.452857143       2
     0.792891793     0.917928918     0.452857143       3
     0.792792793     0.927927928     0.452857143       2
     0.802692803     0.928026928     0.452857143       3
     0.802593803     0.938025938     0.452857143       2
     0.812493812     0.938124938     0.452857143       3
     0.812394812     0.948123948     0.452857143       2
     0.822294822     0.948222948     0.452857143       3
     0.822195822     0.958221958     0.452857143       2
     0.832095832     0.958320958     0.452857143       3
     0.831996832     0.968319968     0.452857143       2
     0.841896842     0.968418968     0.452857143       3
     0.841797842     0.978417978     0.452857143       2
     0.851697852     0.978516979     0.452857143       3
     0.851598852     0.988515989     0.452857143       2
     0.861498861     0.988614989     0.452857143       3
     0.861399861     0.998613999     0.452857143       2
     0.871299871     0.998712999     0.452857143       3
     0.871200871     0.008712009     0.452857143       2
     0.881100881     0.008811009     0.452857143       3
     0.881001881     0.018810019     0.452857143       2
     0.890901891     0.018909019     0.452857143       3
     0.890802891     0.028908029     0.452857143       2
     0.900702901     0.029007029     0.452857143       3
     0.900603901     0.039006039     0.452857143       2
     0.910503911     0.039105039     0.452857143       3
     0.910404910     0.049104049     0.452857143       2
     0.920304920     0.049203049     0.452857143       3
     0.920205920     0.059202059     0.452857143       2
     0.930105930     0.059301059     0.452857143       3
     0.930006930     0.069300069     0.452857143       2
     0.939906940     0.069399069     0.452857143       3
     0.939807940     0.079398079     0.452857143       2
     0.949707950     0.079497079     0.452857143       3
     0.949608950     0.089496089     0.452857143       2
     0.959508960     0.089595090     0.452857143       3
     0.959409959     0.099594100     0.452857143       2
     0.969309969     0.099693100     0.452857143       3
     0.969210969     0.109692110     0.452857143       2
     0.979110979     0.109791110     0.452857143       3
     0.979011979     0.119790120     0.452857143       2
     0.988911989     0.119889120     0.452857143       3
     0.988812989     0.129888130     0.452857143       2
     0.998712999     0.129987130     0.452857143       3
     0.998613999     0.139986140     0.452857143       2
     0.008514009     0.140085140     0.452857143       3
     0.008415008     0.150084150     0.452857143       2
     0.018315018     0.150183150     0.452857143       3
     0.018216018     0.160182160     0.452857143       2
     0.028116028     0.160281160     0.452857143       3
     0.028017028     0.170280170     0.452857143       2
     0.037917038     0.170379170     0.452857143       3
     0.037818038     0.180378180     0.452857143       2
     0.047718048     0.180477180     0.452857143       3
     0.047619048     0.190476190     0.452857143       2
     0.057519058     0.190575191     0.452857143       3
     0.057420057     0.200574201     0.452857143       2
     0.067320067     0.200673201     0.452857143       3
     0.067221067     0.210672211     0.452857143       2
     0.077121077     0.210771211     0.452857143       3
     0.077022077     0.220770221     0.452857143       2
     0.086922087     0.220869221     0.452857143       3
     0.086823087     0.230868231     0.452857143       2
     0.096723097     0.230967231     0.452857143       3
     0.096624097     0.240966241     0.452857143       2
     0.106524107     0.241065241     0.452857143       3
     0.106425106     0.251064251     0.452857143       2
     0.116325116     0.251163251     0.452857143       3
     0.116226116     0.261162261     0.452857143       2
     0.126126126     0.261261261     0.452857143       3
     0.126027126     0.271260271     0.452857143       2
     0.135927136     0.271359271     0.452857143       3
     0.135828136     0.281358281     0.452857143       2
     0.145728146     0.281457281     0.452857143       3
     0.145629146     0.291456291     0.452857143       2
     0.155529156     0.291555292     0.452857143       3
     0.155430155     0.301554302     0.452857143       2
     0.165330165     0.301653302     0.452857143       3
     0.165231165     0.311652312     0.452857143       2
     0.175131175     0.311751312     0.452857143       3
     0.175032175     0.321750322     0.452857143       2
     0.184932185     0.321849322     0.452857143       3
     0.184833185     0.331848332     0.452857143       2
     0.194733195     0.331947332     0.452857143       3
     0.194634195     0.341946342     0.452857143       2
     0.204534205     0.342045342     0.452857143       3
     0.204435204     0.352044352     0.452857143       2
     0.214335214     0.352143352     0.452857143       3
     0.214236214     0.362142362     0.452857143       2
     0.224136224     0.362241362     0.452857143       3
     0.224037224     0.372240372     0.452857143       2
     0.233937234     0.372339372     0.452857143       3
     0.233838234     0.382338382     0.452857143       2
     0.243738244     0.382437382     0.452857143       3
     0.243639244     0.392436392     0.452857143       2
     0.253539254     0.392535393     0.452857143       3
     0.253440253     0.402534403     0.452857143       2
     0.263340263     0.402633403     0.452857143       3
     0.263241263     0.412632413     0.452857143       2
     0.273141273     0.412731413     0.452857143       3
     0.273042273     0.422730423     0.452857143       2
     0.282942283     0.422829423     0.452857143       3
     0.282843283     0.432828433     0.452857143       2
     0.292743293     0.432927433     0.452857143       3
     0.292644293     0.442926443     0.452857143       2
     0.302544303     0.443025443     0.452857143       3
     0.302445302     0.453024453     0.452857143       2
     0.312345312     0.453123453     0.452857143       3
     0.312246312     0.463122463     0.452857143       2
     0.322146322     0.463221463     0.452857143       3
     0.322047322     0.473220473     0.452857143       2
     0.331947332     0.473319473     0.452857143       3
     0.331848332     0.483318483     0.452857143       2
     0.341748342     0.483417483     0.452857143       3
     0.341649342     0.493416493     0.452857143       2
     0.351549352     0.493515494     0.452857143       3
     0.351450351     0.503514504     0.452857143       2
     0.361350361     0.503613504     0.452857143       3
     0.361251361     0.513612514     0.452857143       2
     0.371151371     0.513711514     0.452857143       3
     0.371052371     0.523710524     0.452857143       2
     0.380952381     0.523809524     0.452857143       3
     0.380853381     0.533808534     0.452857143       2
     0.390753391     0.533907534     0.452857143       3
     0.390654391     0.543906544     0.452857143       2
     0.400554401     0.544005544     0.452857143       3
     0.400455400     0.554004554     0.452857143       2
     0.410355410     0.554103554     0.452857143       3
     0.410256410     0.564102564     0.452857143       2
     0.420156420     0.564201564     0.452857143       3
     0.420057420     0.574200574     0.452857143       2
     0.429957430     0.574299574     0.452857143       3
     0.429858430     0.584298584     0.452857143       2
     0.439758440     0.584397584     0.452857143       3
     0.439659440     0.594396594     0.452857143       2
     0.449559450     0.594495594     0.452857143       3
     0.449460449     0.604494604     0.452857143       2
     0.459360459     0.604593605     0.452857143       3
     0.459261459     0.614592615     0.452857143       2
     0.469161469     0.614691615     0.452857143       3
     0.469062469     0.624690625     0.452857143       2
     0.478962479     0.624789625     0.452857143       3
     0.478863479     0.634788635     0.452857143       2
     0.488763489     0.634887635     0.452857143       3
     0.488664489     0.644886645     0.452857143       2
     0.498564499     0.644985645     0.452857143       3
     0.498465498     0.654984655     0.452857143       2
     0.508365508     0.655083655     0.452857143       3
     0.508266508     0.665082665     0.452857143       2
     0.518166518     0.665181665     0.452857143       3
     0.518067518     0.675180675     0.452857143       2
     0.527967528     0.675279675     0.452857143       3
     0.527868528     0.685278685     0.452857143       2
     0.537768538     0.685377685     0.452857143       3
     0.537669538     0.695376695     0.452857143       2
     0.547569548     0.695475695     0.452857143       3
     0.547470547     0.705474705     0.452857143       2
     0.557370557     0.705573706     0.452857143       3
     0.557271557     0.715572716     0.452857143       2
     0.567171567     0.715671716     0.452857143       3
     0.567072567     0.725670726     0.452857143       2
     0.576972577     0.725769726     0.452857143       3
     0.576873577     0.735768736     0.452857143       2
     0.586773587     0.735867736     0.452857143       3
     0.586674587     0.745866746     0.452857143       2
     0.596574597     0.745965746     0.452857143       3
     0.596475596     0.755964756     0.452857143       2
     0.606375606     0.756063756     0.452857143       3
     0.606276606     0.766062766     0.452857143       2
     0.616176616     0.766161766     0.452857143       3
     0.616077616     0.776160776     0.452857143       2
     0.625977626     0.776259776     0.452857143       3
     0.625878626     0.786258786     0.452857143       2
     0.635778636     0.786357786     0.452857143       3
     0.635679636     0.796356796     0.452857143       2
     0.645579646     0.796455796     0.452857143       3
     0.645480645     0.806454806     0.452857143       2
     0.655380655     0.806553807     0.452857143       3
     0.655281655     0.816552817     0.452857143       2
     0.665181665     0.816651817     0.452857143       3
     0.665082665     0.826650827     0.452857143       2
     0.674982675     0.826749827     0.452857143       3
     0.674883675     0.836748837     0.452857143       2
     0.684783685     0.836847837     0.452857143       3
     0.684684685     0.846846847     0.452857143       2
     0.694584695     0.846945847     0.452857143       3
     0.694485694     0.856944857     0.452857143       2
     0.704385704     0.857043857     0.452857143       3
     0.704286704     0.867042867     0.452857143       2
     0.714186714     0.867141867     0.452857143       3
     0.714087714     0.877140877     0.452857143       2
     0.723987724     0.877239877     0.452857143       3
     0.723888724     0.887238887     0.452857143       2
     0.733788734     0.887337887     0.452857143       3
     0.733689734     0.897336897     0.452857143       2
     0.743589744     0.897435897     0.452857143       3
     0.743490743     0.907434907     0.452857143       2
     0.753390753     0.907533908     0.452857143       3
     0.753291753     0.917532918     0.452857143       2
     0.763191763     0.917631918     0.452857143       3
     0.763092763     0.927630928     0.452857143       2
     0.772992773     0.927729928     0.452857143       3
     0.772893773     0.937728938     0.452857143       2
     0.782793783     0.937827938     0.452857143       3
     0.782694783     0.947826948     0.452857143       2
     0.792594793     0.947925948     0.452857143       3
     0.792495792     0.957924958     0.452857143       2
     0.802395802     0.958023958     0.452857143       3
     0.802296802     0.968022968     0.452857143       2
     0.812196812     0.968121968     0.452857143       3
     0.812097812     0.978120978     0.452857143       2
     0.821997822     0.978219978     0.452857143       3
     0.821898822     0.988218988     0.452857143       2
     0.831798832     0.988317988     0.452857143       3
     0.831699832     0.998316998     0.452857143       2
     0.841599842     0.998415998     0.452857143       3
     0.841500842     0.008415008     0.452857143       2
     0.851400851     0.008514009     0.452857143       3
     0.851301851     0.018513019     0.452857143       2
     0.861201861     0.018612019     0.452857143       3
     0.861102861     0.028611029     0.452857143       2
     0.871002871     0.028710029     0.452857143       3
     0.870903871     0.038709039     0.452857143       2
     0.880803881     0.038808039     0.452857143       3
     0.880704881     0.048807049     0.452857143       2
     0.890604891     0.048906049     0.452857143       3
     0.890505891     0.058905059     0.452857143       2
     0.900405900     0.059004059     0.452857143       3
     0.900306900     0.069003069     0.452857143       2
     0.910206910     0.069102069     0.452857143       3
     0.910107910     0.079101079     0.452857143       2
     0.920007920     0.079200079     0.452857143       3
     0.919908920     0.089199089     0.452857143       2
     0.929808930     0.089298089     0.452857143       3
     0.929709930     0.099297099     0.452857143       2
     0.939609940     0.099396099     0.452857143       3
     0.939510940     0.109395109     0.452857143       2
     0.949410949     0.109494109     0.452857143       3
     0.949311949     0.119493119     0.452857143       2
     0.959211959     0.119592120     0.452857143       3
     0.959112959     0.129591130     0.452857143       2
     0.969012969     0.129690130     0.452857143       3
     0.968913969     0.139689140     0.452857143       2
     0.978813979     0.139788140     0.452857143       3
     0.978714979     0.149787150     0.452857143       2
     0.988614989     0.149886150     0.452857143       3
     0.988515989     0.159885160     0.452857143       2
     0.998415998     0.159984160     0.452857143       3
     0.998316998     0.169983170     0.452857143       2
     0.008217008     0.170082170     0.452857143       3
     0.008118008     0.180081180     0.452857143       2
     0.018018018     0.180180180     0.452857143       3
     0.017919018     0.190179190     0.452857143       2
     0.027819028     0.190278190     0.452857143       3
     0.027720028     0.200277200     0.452857143       2
     0.037620038     0.200376200     0.452857143       3
     0.037521038     0.210375210     0.452857143       2
     0.047421047     0.210474210     0.452857143       3
     0.047322047     0.220473220     0.452857143       2
     0.057222057     0.220572221     0.452857143       3
     0.057123057     0.230571231     0.452857143       2
     0.067023067     0.230670231     0.452857143       3
     0.066924067     0.240669241     0.452857143       2
     0.076824077     0.240768241     0.452857143       3
     0.076725077     0.250767251     0.452857143       2
     0.086625087     0.250866251     0.452857143       3
     0.086526087     0.260865261     0.452857143       2
     0.096426096     0.260964261     0.452857143       3
     0.096327096     0.270963271     0.452857143       2
     0.106227106     0.271062271     0.452857143       3
     0.106128106     0.281061281     0.452857143       2
     0.116028116     0.281160281     0.452857143       3
     0.115929116     0.291159291     0.452857143       2
     0.125829126     0.291258291     0.452857143       3
     0.125730126     0.301257301     0.452857143       2
     0.135630136     0.301356301     0.452857143       3
     0.135531136     0.311355311     0.452857143       2
     0.145431145     0.311454311     0.452857143       3
     0.145332145     0.321453321     0.452857143       2
     0.155232155     0.321552322     0.452857143       3
     0.155133155     0.331551332     0.452857143       2
     0.165033165     0.331650332     0.452857143       3
     0.164934165     0.341649342     0.452857143       2
     0.174834175     0.341748342     0.452857143       3
     0.174735175     0.351747352     0.452857143       2
     0.184635185     0.351846352     0.452857143       3
     0.184536185     0.361845362     0.452857143       2
     0.194436194     0.361944362     0.452857143       3
     0.194337194     0.371943372     0.452857143       2
     0.204237204     0.372042372     0.452857143       3
     0.204138204     0.382041382     0.452857143       2
     0.214038214     0.382140382     0.452857143       3
     0.213939214     0.392139392     0.452857143       2
     0.223839224     0.392238392     0.452857143       3
     0.223740224     0.402237402     0.452857143       2
     0.233640234     0.402336402     0.452857143       3
     0.233541234     0.412335412     0.452857143       2
     0.243441243     0.412434412     0.452857143       3
     0.243342243     0.422433422     0.452857143       2
     0.253242253     0.422532423     0.452857143       3
     0.253143253     0.432531433     0.452857143       2
     0.263043263     0.432630433     0.452857143       3
     0.262944263     0.442629443     0.452857143       2
     0.272844273     0.442728443     0.452857143       3
     0.272745273     0.452727453     0.452857143       2
     0.282645283     0.452826453     0.452857143       3
     0.282546283     0.462825463     0.452857143       2
     0.292446292     0.462924463     0.452857143       3
     0.292347292     0.472923473     0.452857143       2
     0.302247302     0.473022473     0.452857143       3
     0.302148302     0.483021483     0.452857143       2
     0.312048312     0.483120483     0.452857143       3
     0.311949312     0.493119493     0.452857143       2
     0.321849322     0.493218493     0.452857143       3
     0.321750322     0.503217503     0.452857143       2
     0.331650332     0.503316503     0.452857143       3
     0.331551332     0.513315513     0.452857143       2
     0.341451341     0.513414513     0.452857143       3
     0.341352341     0.523413523     0.452857143       2
     0.351252351     0.523512524     0.452857143       3
     0.351153351     0.533511534     0.452857143       2
     0.361053361     0.533610534     0.452857143       3
     0.360954361     0.543609544     0.452857143       2
     0.370854371     0.543708544     0.452857143       3
     0.370755371     0.553707554     0.452857143       2
     0.380655381     0.553806554     0.452857143       3
     0.380556381     0.563805564     0.452857143       2
     0.390456390     0.563904564     0.452857143       3
     0.390357390     0.573903574     0.452857143       2
     0.400257400     0.574002574     0.452857143       3
     0.400158400     0.584001584     0.452857143       2
     0.410058410     0.584100584     0.452857143       3
     0.409959410     0.594099594     0.452857143       2
     0.419859420     0.594198594     0.452857143       3
     0.419760420     0.604197604     0.452857143       2
     0.429660430     0.604296604     0.452857143       3
     0.429561430     0.614295614     0.452857143       2
     0.439461439     0.614394614     0.452857143       3
     0.439362439     0.624393624     0.452857143       2
     0.449262449     0.624492624     0.452857143       3
     0.449163449     0.634491634     0.452857143       2
     0.459063459     0.634590635     0.452857143       3
     0.458964459     0.644589645     0.452857143       2
     0.468864469     0.644688645     0.452857143       3
     0.468765469     0.654687655     0.452857143       2
     0.478665479     0.654786655     0.452857143       3
     0.478566479     0.664785665     0.452857143       2
     0.488466488     0.664884665     0.452857143       3
     0.488367488     0.674883675     0.452857143       2
     0.498267498     0.674982675     0.452857143       3
     0.498168498     0.684981685     0.452857143       2
     0.508068508     0.685080685     0.452857143       3
     0.507969508     0.695079695     0.452857143       2
     0.517869518     0.695178695     0.452857143       3
     0.517770518     0.705177705     0.452857143       2
     0.527670528     0.705276705     0.452857143       3
     0.527571528     0.715275715     0.452857143       2
     0.537471537     0.715374715     0.452857143       3
     0.537372537     0.725373725     0.452857143       2
     0.547272547     0.725472725     0.452857143       3
     0.547173547     0.735471735     0.452857143       2
     0.557073557     0.735570736     0.452857143       3
     0.556974557     0.745569746     0.452857143       2
     0.566874567     0.745668746     0.452857143       3
     0.566775567     0.755667756     0.452857143       2
     0.576675577     0.755766756     0.452857143       3
     0.576576577     0.765765766     0.452857143       2
     0.586476586     0.765864766     0.452857143       3
     0.586377586     0.775863776     0.452857143       2
     0.596277596     0.775962776     0.452857143       3
     0.596178596     0.785961786     0.452857143       2
     0.606078606     0.786060786     0.452857143       3
     0.605979606     0.796059796     0.452857143       2
     0.615879616     0.796158796     0.452857143       3
     0.615780616     0.806157806     0.452857143       2
     0.625680626     0.806256806     0.452857143       3
     0.625581626     0.816255816     0.452857143       2
     0.635481635     0.816354816     0.452857143       3
     0.635382635     0.826353826     0.452857143       2
     0.645282645     0.826452826     0.452857143       3
     0.645183645     0.836451836     0.452857143       2
     0.655083655     0.836550837     0.452857143       3
     0.654984655     0.846549847     0.452857143       2
     0.664884665     0.846648847     0.452857143       3
     0.664785665     0.856647857     0.452857143       2
     0.674685675     0.856746857     0.452857143       3
     0.674586675     0.866745867     0.452857143       2
     0.684486684     0.866844867     0.452857143       3
     0.684387684     0.876843877     0.452857143       2
     0.694287694     0.876942877     0.452857143       3
     0.694188694     0.886941887     0.452857143       2
     0.704088704     0.887040887     0.452857143       3
     0.703989704     0.897039897     0.452857143       2
     0.713889714     0.897138897     0.452857143       3
     0.713790714     0.907137907     0.452857143       2
     0.723690724     0.907236907     0.452857143       3
     0.723591724     0.917235917     0.452857143       2
     0.733491733     0.917334917     0.452857143       3
     0.733392733     0.927333927     0.452857143       2
     0.743292743     0.927432927     0.452857143       3
     0.743193743     0.937431937     0.452857143       2
     0.753093753     0.937530938     0.452857143       3
     0.752994753     0.947529948     0.452857143       2
     0.762894763     0.947628948     0.452857143       3
     0.762795763     0.957627958     0.452857143       2
     0.772695773     0.957726958     0.452857143       3
     0.772596773     0.967725968     0.452857143       2
     0.782496782     0.967824968     0.452857143       3
     0.782397782     0.977823978     0.452857143       2
     0.792297792     0.977922978     0.452857143       3
     0.792198792     0.987921988     0.452857143       2
     0.802098802     0.988020988     0.452857143       3
     0.801999802     0.998019998     0.452857143       2
     0.811899812     0.998118998     0.452857143       3
     0.811800812     0.008118008     0.452857143       2
     0.821700822     0.008217008     0.452857143       3
     0.821601822     0.018216018     0.452857143       2
     0.831501832     0.018315018     0.452857143       3
     0.831402831     0.028314028     0.452857143       2
     0.841302841     0.028413028     0.452857143       3
     0.841203841     0.038412038     0.452857143       2
     0.851103851     0.038511039     0.452857143       3
     0.851004851     0.048510049     0.452857143       2
     0.860904861     0.048609049     0.452857143       3
     0.860805861     0.058608059     0.452857143       2
     0.870705871     0.058707059     0.452857143       3
     0.870606871     0.068706069     0.452857143       2
     0.880506881     0.068805069     0.452857143       3
     0.880407880     0.078804079     0.452857143       2
     0.890307890     0.078903079     0.452857143       3
     0.890208890     0.088902089     0.452857143       2
     0.900108900     0.089001089     0.452857143       3
     0.900009900     0.099000099     0.452857143       2
     0.909909910     0.099099099     0.452857143       3
     0.909810910     0.109098109     0.452857143       2
     0.919710920     0.109197109     0.452857143       3
     0.919611920     0.119196119     0.452857143       2
     0.929511930     0.119295119     0.452857143       3
     0.929412929     0.129294129     0.452857143       2
     0.939312939     0.129393129     0.452857143       3
     0.939213939     0.139392139     0.452857143       2
     0.949113949     0.139491139     0.452857143       3
     0.949014949     0.149490149     0.452857143       2
     0.958914959     0.149589150     0.452857143       3
     0.958815959     0.159588160     0.452857143       2
     0.968715969     0.159687160     0.452857143       3
     0.968616969     0.169686170     0.452857143       2
     0.978516979     0.169785170     0.452857143       3
     0.978417978     0.179784180     0.452857143       2
     0.988317988     0.179883180     0.452857143       3
     0.988218988     0.189882190     0.452857143       2
     0.998118998     0.189981190     0.452857143       3
     0.998019998     0.199980200     0.452857143       2
     0.007920008     0.200079200     0.452857143       3
     0.007821008     0.210078210     0.452857143       2
     0.017721018     0.210177210     0.452857143       3
     0.017622018     0.220176220     0.452857143       2
     0.027522028     0.220275220     0.452857143       3
     0.027423027     0.230274230     0.452857143       2
     0.037323037     0.230373230     0.452857143       3
     0.037224037     0.240372240     0.452857143       2
     0.047124047     0.240471240     0.452857143       3
     0.047025047     0.250470250     0.452857143       2
     0.056925057     0.250569251     0.452857143       3
     0.056826057     0.260568261     0.452857143       2
     0.066726067     0.260667261     0.452857143       3
     0.066627067     0.270666271     0.452857143       2
     0.076527077     0.270765271     0.452857143       3
     0.076428076     0.280764281     0.452857143       2
     0.086328086     0.280863281     0.452857143       3
     0.086229086     0.290862291     0.452857143       2
     0.096129096     0.290961291     0.452857143       3
     0.096030096     0.300960301     0.452857143       2
     0.105930106     0.301059301     0.452857143       3
     0.105831106     0.311058311     0.452857143       2
     0.115731116     0.311157311     0.452857143       3
     0.115632116     0.321156321     0.452857143       2
     0.125532126     0.321255321     0.452857143       3
     0.125433125     0.331254331     0.452857143       2
     0.135333135     0.331353331     0.452857143       3
     0.135234135     0.341352341     0.452857143       2
     0.145134145     0.341451341     0.452857143       3
     0.145035145     0.351450351     0.452857143       2
     0.154935155     0.351549352     0.452857143       3
     0.154836155     0.361548362     0.452857143       2
     0.164736165     0.361647362     0.452857143       3
     0.164637165     0.371646372     0.452857143       2
     0.174537175     0.371745372     0.452857143       3
     0.174438174     0.381744382     0.452857143       2
     0.184338184     0.381843382     0.452857143       3
     0.184239184     0.391842392     0.452857143       2
     0.194139194     0.391941392     0.452857143       3
     0.194040194     0.401940402     0.452857143       2
     0.203940204     0.402039402     0.452857143       3
     0.203841204     0.412038412     0.452857143       2
     0.213741214     0.412137412     0.452857143       3
     0.213642214     0.422136422     0.452857143       2
     0.223542224     0.422235422     0.452857143       3
     0.223443223     0.432234432     0.452857143       2
     0.233343233     0.432333432     0.452857143       3
     0.233244233     0.442332442     0.452857143       2
     0.243144243     0.442431442     0.452857143       3
     0.243045243     0.452430452     0.452857143       2
     0.252945253     0.452529453     0.452857143       3
     0.252846253     0.462528463     0.452857143       2
     0.262746263     0.462627463     0.452857143       3
     0.262647263     0.472626473     0.452857143       2
     0.272547273     0.472725473     0.452857143       3
     0.272448272     0.482724483     0.452857143       2
     0.282348282     0.482823483     0.452857143       3
     0.282249282     0.492822493     0.452857143       2
     0.292149292     0.492921493     0.452857143       3
     0.292050292     0.502920503     0.452857143       2
     0.301950302     0.503019503     0.452857143       3
     0.301851302     0.513018513     0.452857143       2
     0.311751312     0.513117513     0.452857143       3
     0.311652312     0.523116523     0.452857143       2
     0.321552322     0.523215523     0.452857143       3
     0.321453321     0.533214533     0.452857143       2
     0.331353331     0.533313533     0.452857143       3
     0.331254331     0.543312543     0.452857143       2
     0.341154341     0.543411543     0.452857143       3
     0.341055341     0.553410553     0.452857143       2
     0.350955351     0.553509554     0.452857143       3
     0.350856351     0.563508564     0.452857143       2
     0.360756361     0.563607564     0.452857143       3
     0.360657361     0.573606574     0.452857143       2
     0.370557371     0.573705574     0.452857143       3
     0.370458370     0.583704584     0.452857143       2
     0.380358380     0.583803584     0.452857143       3
     0.380259380     0.593802594     0.452857143       2
     0.390159390     0.593901594     0.452857143       3
     0.390060390     0.603900604     0.452857143       2
     0.399960400     0.603999604     0.452857143       3
     0.399861400     0.613998614     0.452857143       2
     0.409761410     0.614097614     0.452857143       3
     0.409662410     0.624096624     0.452857143       2
     0.419562420     0.624195624     0.452857143       3
     0.419463419     0.634194634     0.452857143       2
     0.429363429     0.634293634     0.452857143       3
     0.429264429     0.644292644     0.452857143       2
     0.439164439     0.644391644     0.452857143       3
     0.439065439     0.654390654     0.452857143       2
     0.448965449     0.654489654     0.452857143       3
     0.448866449     0.664488664     0.452857143       2
     0.458766459     0.664587665     0.452857143       3
     0.458667459     0.674586675     0.452857143       2
     0.468567469     0.674685675     0.452857143       3
     0.468468468     0.684684685     0.452857143       2
     0.478368478     0.684783685     0.452857143       3
     0.478269478     0.694782695     0.452857143       2
     0.488169488     0.694881695     0.452857143       3
     0.488070488     0.704880705     0.452857143       2
     0.497970498     0.704979705     0.452857143       3
     0.497871498     0.714978715     0.452857143       2
     0.507771508     0.715077715     0.452857143       3
     0.507672508     0.725076725     0.452857143       2
     0.517572518     0.725175725     0.452857143       3
     0.517473517     0.735174735     0.452857143       2
     0.527373527     0.735273735     0.452857143       3
     0.527274527     0.745272745     0.452857143       2
     0.537174537     0.745371745     0.452857143       3
     0.537075537     0.755370755     0.452857143       2
     0.546975547     0.755469755     0.452857143       3
     0.546876547     0.765468765     0.452857143       2
     0.556776557     0.765567766     0.452857143       3
     0.556677557     0.775566776     0.452857143       2
     0.566577567     0.775665776     0.452857143       3
     0.566478566     0.785664786     0.452857143       2
     0.576378576     0.785763786     0.452857143       3
     0.576279576     0.795762796     0.452857143       2
     0.586179586     0.795861796     0.452857143       3
     0.586080586     0.805860806     0.452857143       2
     0.595980596     0.805959806     0.452857143       3
     0.595881596     0.815958816     0.452857143       2
     0.605781606     0.816057816     0.452857143       3
     0.605682606     0.826056826     0.452857143       2
     0.615582616     0.826155826     0.452857143       3
     0.615483615     0.836154836     0.452857143       2
     0.625383625     0.836253836     0.452857143       3
     0.625284625     0.846252846     0.452857143       2
     0.635184635     0.846351846     0.452857143       3
     0.635085635     0.856350856     0.452857143       2
     0.644985645     0.856449856     0.452857143       3
     0.644886645     0.866448866     0.452857143       2
     0.654786655     0.866547867     0.452857143       3
     0.654687655     0.876546877     0.452857143       2
     0.664587665     0.876645877     0.452857143       3
     0.664488664     0.886644887     0.452857143       2
     0.674388674     0.886743887     0.452857143       3
     0.674289674     0.896742897     0.452857143       2
     0.684189684     0.896841897     0.452857143       3
     0.684090684     0.906840907     0.452857143       2
     0.693990694     0.906939907     0.452857143       3
     0.693891694     0.916938917     0.452857143       2
     0.703791704     0.917037917     0.452857143       3
     0.703692704     0.927036927     0.452857143       2
     0.713592714     0.927135927     0.452857143       3
     0.713493713     0.937134937     0.452857143       2
     0.723393723     0.937233937     0.452857143       3
     0.723294723     0.947232947     0.452857143       2
     0.733194733     0.947331947     0.452857143       3
     0.733095733     0.957330957     0.452857143       2
     0.742995743     0.957429957     0.452857143       3
     0.742896743     0.967428967     0.452857143       2
     0.752796753     0.967527968     0.452857143       3
     0.752697753     0.977526978     0.452857143       2
     0.762597763     0.977625978     0.452857143       3
     0.762498762     0.987624988     0.452857143       2
     0.772398772     0.987723988     0.452857143       3
     0.772299772     0.997722998     0.452857143       2
     0.782199782     0.997821998     0.452857143       3
     0.782100782     0.007821008     0.452857143       2
     0.792000792     0.007920008     0.452857143       3
     0.791901792     0.017919018     0.452857143       2
     0.801801802     0.018018018     0.452857143       3
     0.801702802     0.028017028     0.452857143       2
     0.811602812     0.028116028     0.452857143       3
     0.811503812     0.038115038     0.452857143       2
     0.821403821     0.038214038     0.452857143       3
     0.821304821     0.048213048     0.452857143       2
     0.831204831     0.048312048     0.452857143       3
     0.831105831     0.058311058     0.452857143       2
     0.841005841     0.058410058     0.452857143       3
     0.840906841     0.068409068     0.452857143       2
     0.850806851     0.068508069     0.452857143       3
     0.850707851     0.078507079     0.452857143       2
     0.860607861     0.078606079     0.452857143       3
     0.860508861     0.088605089     0.452857143       2
     0.870408870     0.088704089     0.452857143       3
     0.870309870     0.098703099     0.452857143       2
     0.880209880     0.098802099     0.452857143       3
     0.880110880     0.108801109     0.452857143       2
     0.890010890     0.108900109     0.452857143       3
     0.889911890     0.118899119     0.452857143       2
     0.899811900     0.118998119     0.452857143       3
     0.899712900     0.128997129     0.452857143       2
     0.909612910     0.129096129     0.452857143       3
     0.909513910     0.139095139     0.452857143       2
     0.919413919     0.139194139     0.452857143       3
     0.919314919     0.149193149     0.452857143       2
     0.929214929     0.149292149     0.452857143       3
     0.929115929     0.159291159     0.452857143       2
     0.939015939     0.159390159     0.452857143       3
     0.938916939     0.169389169     0.452857143       2
     0.948816949     0.169488169     0.452857143       3
     0.948717949     0.179487179     0.452857143       2
     0.958617959     0.179586180     0.452857143       3
     0.958518959     0.189585190     0.452857143       2
     0.968418968     0.189684190     0.452857143       3
     0.968319968     0.199683200     0.452857143       2
     0.978219978     0.199782200     0.452857143       3
     0.978120978     0.209781210     0.452857143       2
     0.988020988     0.209880210     0.452857143       3
     0.987921988     0.219879220     0.452857143       2
     0.997821998     0.219978220     0.452857143       3
     0.997722998     0.229977230     0.452857143       2
     0.007623008     0.230076230     0.452857143       3
     0.007524008     0.240075240     0.452857143       2
     0.017424017     0.240174240     0.452857143       3
     0.017325017     0.250173250     0.452857143       2
     0.027225027     0.250272250     0.452857143       3
     0.027126027     0.260271260     0.452857143       2
     0.037026037     0.260370260     0.452857143       3
     0.036927037     0.270369270     0.452857143       2
     0.046827047     0.270468270     0.452857143       3
     0.046728047     0.280467280     0.452857143       2
     0.056628057     0.280566281     0.452857143       3
     0.056529057     0.290565291     0.452857143       2
     0.066429066     0.290664291     0.452857143       3
     0.066330066     0.300663301     0.452857143       2
     0.076230076     0.300762301     0.452857143       3
     0.076131076     0.310761311     0.452857143       2
     0.086031086     0.310860311     0.452857143       3
     0.085932086     0.320859321     0.452857143       2
     0.095832096     0.320958321     0.452857143       3
     0.095733096     0.330957331     0.452857143       2
     0.105633106     0.331056331     0.452857143       3
     0.105534106     0.341055341     0.452857143       2
     0.115434115     0.341154341     0.452857143       3
     0.115335115     0.351153351     0.452857143       2
     0.125235125     0.351252351     0.452857143       3
     0.125136125     0.361251361     0.452857143       2
     0.135036135     0.361350361     0.452857143       3
     0.134937135     0.371349371     0.452857143       2
     0.144837145     0.371448371     0.452857143       3
     0.144738145     0.381447381     0.452857143       2
     0.154638155     0.381546382     0.452857143       3
     0.154539155     0.391545392     0.452857143       2
     0.164439164     0.391644392     0.452857143       3
     0.164340164     0.401643402     0.452857143       2
     0.174240174     0.401742402     0.452857143       3
     0.174141174     0.411741412     0.452857143       2
     0.184041184     0.411840412     0.452857143       3
     0.183942184     0.421839422     0.452857143       2
     0.193842194     0.421938422     0.452857143       3
     0.193743194     0.431937432     0.452857143       2
     0.203643204     0.432036432     0.452857143       3
     0.203544204     0.442035442     0.452857143       2
     0.213444213     0.442134442     0.452857143       3
     0.213345213     0.452133452     0.452857143       2
     0.223245223     0.452232452     0.452857143       3
     0.223146223     0.462231462     0.452857143       2
     0.233046233     0.462330462     0.452857143       3
     0.232947233     0.472329472     0.452857143       2
     0.242847243     0.472428472     0.452857143       3
     0.242748243     0.482427482     0.452857143       2
     0.252648253     0.482526483     0.452857143       3
     0.252549253     0.492525493     0.452857143       2
     0.262449262     0.492624493     0.452857143       3
     0.262350262     0.502623503     0.452857143       2
     0.272250272     0.502722503     0.452857143       3
     0.272151272     0.512721513     0.452857143       2
     0.282051282     0.512820513     0.452857143       3
     0.281952282     0.522819523     0.452857143       2
     0.291852292     0.522918523     0.452857143       3
     0.291753292     0.532917533     0.452857143       2
     0.301653302     0.533016533     0.452857143       3
     0.301554302     0.543015543     0.452857143       2
     0.311454311     0.543114543     0.452857143       3
     0.311355311     0.553113553     0.452857143       2
     0.321255321     0.553212553     0.452857143       3
     0.321156321     0.563211563     0.452857143       2
     0.331056331     0.563310563     0.452857143       3
     0.330957331     0.573309573     0.452857143       2
     0.340857341     0.573408573     0.452857143       3
     0.340758341     0.583407583     0.452857143       2
     0.350658351     0.583506584     0.452857143       3
     0.350559351     0.593505594     0.452857143       2
     0.360459360     0.593604594     0.452857143       3
     0.360360360     0.603603604     0.452857143       2
     0.370260370     0.603702604     0.452857143       3
     0.370161370     0.613701614     0.452857143       2
     0.380061380     0.613800614     0.452857143       3
     0.379962380     0.623799624     0.452857143       2
     0.389862390     0.623898624     0.452857143       3
     0.389763390     0.633897634     0.452857143       2
     0.399663400     0.633996634     0.452857143       3
     0.399564400     0.643995644     0.452857143       2
     0.409464409     0.644094644     0.452857143       3
     0.409365409     0.654093654     0.452857143       2
     0.419265419     0.654192654     0.452857143       3
     0.419166419     0.664191664     0.452857143       2
     0.429066429     0.664290664     0.452857143       3
     0.428967429     0.674289674     0.452857143       2
     0.438867439     0.674388674     0.452857143       3
     0.438768439     0.684387684     0.452857143       2
     0.448668449     0.684486684     0.452857143       3
     0.448569449     0.694485694     0.452857143       2
     0.458469458     0.694584695     0.452857143       3
     0.458370458     0.704583705     0.452857143       2
     0.468270468     0.704682705     0.452857143       3
     0.468171468     0.714681715     0.452857143       2
     0.478071478     0.714780715     0.452857143       3
     0.477972478     0.724779725     0.452857143       2
     0.487872488     0.724878725     0.452857143       3
     0.487773488     0.734877735     0.452857143       2
     0.497673498     0.734976735     0.452857143       3
     0.497574498     0.744975745     0.452857143       2
     0.507474507     0.745074745     0.452857143       3
     0.507375507     0.755073755     0.452857143       2
     0.517275517     0.755172755     0.452857143       3
     0.517176517     0.765171765     0.452857143       2
     0.527076527     0.765270765     0.452857143       3
     0.526977527     0.775269775     0.452857143       2
     0.536877537     0.775368775     0.452857143       3
     0.536778537     0.785367785     0.452857143       2
     0.546678547     0.785466785     0.452857143       3
     0.546579547     0.795465795     0.452857143       2
     0.556479556     0.795564796     0.452857143       3
     0.556380556     0.805563806     0.452857143       2
     0.566280566     0.805662806     0.452857143       3
     0.566181566     0.815661816     0.452857143       2
     0.576081576     0.815760816     0.452857143       3
     0.575982576     0.825759826     0.452857143       2
     0.585882586     0.825858826     0.452857143       3
     0.585783586     0.835857836     0.452857143       2
     0.595683596     0.835956836     0.452857143       3
     0.595584596     0.845955846     0.452857143       2
     0.605484605     0.846054846     0.452857143       3
     0.605385605     0.856053856     0.452857143       2
     0.615285615     0.856152856     0.452857143       3
     0.615186615     0.866151866     0.452857143       2
     0.625086625     0.866250866     0.452857143       3
     0.624987625     0.876249876     0.452857143       2
     0.634887635     0.876348876     0.452857143       3
     0.634788635     0.886347886     0.452857143       2
     0.644688645     0.886446886     0.452857143       3
     0.644589645     0.896445896     0.452857143       2
     0.654489654     0.896544897     0.452857143       3
     0.654390654     0.906543907     0.452857143       2
     0.664290664     0.906642907     0.452857143       3
     0.664191664     0.916641917     0.452857143       2
     0.674091674     0.916740917     0.452857143       3
     0.673992674     0.926739927     0.452857143       2
     0.683892684     0.926838927     0.452857143       3
     0.683793684     0.936837937     0.452857143       2
     0.693693694     0.936936937     0.452857143       3
     0.693594694     0.946935947     0.452857143       2
     0.703494703     0.947034947     0.452857143       3
     0.703395703     0.957033957     0.452857143       2
     0.713295713     0.957132957     0.452857143       3
     0.713196713     0.967131967     0.452857143       2
     0.723096723     0.967230967     0.452857143       3
     0.722997723     0.977229977     0.452857143       2
     0.732897733     0.977328977     0.452857143       3
     0.732798733     0.987327987     0.452857143       2
     0.742698743     0.987426987     0.452857143       3
     0.742599743     0.997425997     0.452857143       2
     0.752499752     0.997524998     0.452857143       3
     0.752400752     0.007524008     0.452857143       2
     0.762300762     0.007623008     0.452857143       3
     0.762201762     0.017622018     0.452857143       2
     0.772101772     0.017721018     0.452857143       3
     0.772002772     0.027720028     0.452857143       2
     0.781902782     0.027819028     0.452857143       3
     0.781803782     0.037818038     0.452857143       2
     0.791703792     0.037917038     0.452857143       3
     0.791604792     0.047916048     0.452857143       2
     0.801504802     0.048015048     0.452857143       3
     0.801405801     0.058014058     0.452857143       2
     0.811305811     0.058113058     0.452857143       3
     0.811206811     0.068112068     0.452857143       2
     0.821106821     0.068211068     0.452857143       3
     0.821007821     0.078210078     0.452857143       2
     0.830907831     0.078309078     0.452857143       3
     0.830808831     0.088308088     0.452857143       2
     0.840708841     0.088407088     0.452857143       3
     0.840609841     0.098406098     0.452857143       2
     0.850509851     0.098505099     0.452857143       3
     0.850410850     0.108504109     0.452857143       2
     0.860310860     0.108603109     0.452857143       3
     0.860211860     0.118602119     0.452857143       2
     0.870111870     0.118701119     0.452857143       3
     0.870012870     0.128700129     0.452857143       2
     0.879912880     0.128799129     0.452857143       3
     0.879813880     0.138798139     0.452857143       2
     0.889713890     0.138897139     0.452857143       3
     0.889614890     0.148896149     0.452857143       2
     0.899514900     0.148995149     0.452857143       3
     0.899415899     0.158994159     0.452857143       2
     0.909315909     0.159093159     0.452857143       3
     0.909216909     0.169092169     0.452857143       2
     0.919116919     0.169191169     0.452857143       3
     0.919017919     0.179190179     0.452857143       2
     0.928917929     0.179289179     0.452857143       3
     0.928818929     0.189288189     0.452857143       2
     0.938718939     0.189387189     0.452857143       3
     0.938619939     0.199386199     0.452857143       2
     0.948519949     0.199485199     0.452857143       3
     0.948420948     0.209484209     0.452857143       2
     0.958320958     0.209583210     0.452857143       3
     0.958221958     0.219582220     0.452857143       2
     0.968121968     0.219681220     0.452857143       3
     0.968022968     0.229680230     0.452857143       2
     0.977922978     0.229779230     0.452857143       3
     0.977823978     0.239778240     0.452857143       2
     0.987723988     0.239877240     0.452857143       3
     0.987624988     0.249876250     0.452857143       2
     0.997524998     0.249975250     0.452857143       3
     0.997425997     0.259974260     0.452857143       2
     0.007326007     0.260073260     0.452857143       3
     0.007227007     0.270072270     0.452857143       2
     0.017127017     0.270171270     0.452857143       3
     0.017028017     0.280170280     0.452857143       2
     0.026928027     0.280269280     0.452857143       3
     0.026829027     0.290268290     0.452857143       2
     0.036729037     0.290367290     0.452857143       3
     0.036630037     0.300366300     0.452857143       2
     0.046530047     0.300465300     0.452857143       3
     0.046431046     0.310464310     0.452857143       2
     0.056331056     0.310563311     0.452857143       3
     0.056232056     0.320562321     0.452857143       2
     0.066132066     0.320661321     0.452857143       3
     0.066033066     0.330660331     0.452857143       2
     0.075933076     0.330759331     0.452857143       3
     0.075834076     0.340758341     0.452857143       2
     0.085734086     0.340857341     0.452857143       3
     0.085635086     0.350856351     0.452857143       2
     0.095535096     0.350955351     0.452857143       3
     0.095436095     0.360954361     0.452857143       2
     0.105336105     0.361053361     0.452857143       3
     0.105237105     0.371052371     0.452857143       2
     0.115137115     0.371151371     0.452857143       3
     0.115038115     0.381150381     0.452857143       2
     0.124938125     0.381249381     0.452857143       3
     0.124839125     0.391248391     0.452857143       2
     0.134739135     0.391347391     0.452857143       3
     0.134640135     0.401346401     0.452857143       2
     0.144540145     0.401445401     0.452857143       3
     0.144441144     0.411444411     0.452857143       2
     0.154341154     0.411543412     0.452857143       3
     0.154242154     0.421542422     0.452857143       2
     0.164142164     0.421641422     0.452857143       3
     0.164043164     0.431640432     0.452857143       2
     0.173943174     0.431739432     0.452857143       3
     0.173844174     0.441738442     0.452857143       2
     0.183744184     0.441837442     0.452857143       3
     0.183645184     0.451836452     0.452857143       2
     0.193545194     0.451935452     0.452857143       3
     0.193446193     0.461934462     0.452857143       2
     0.203346203     0.462033462     0.452857143       3
     0.203247203     0.472032472     0.452857143       2
     0.213147213     0.472131472     0.452857143       3
     0.213048213     0.482130482     0.452857143       2
     0.222948223     0.482229482     0.452857143       3
     0.222849223     0.492228492     0.452857143       2
     0.232749233     0.492327492     0.452857143       3
     0.232650233     0.502326502     0.452857143       2
     0.242550243     0.502425502     0.452857143       3
     0.242451242     0.512424512     0.452857143       2
     0.252351252     0.512523513     0.452857143       3
     0.252252252     0.522522523     0.452857143       2
     0.262152262     0.522621523     0.452857143       3
     0.262053262     0.532620533     0.452857143       2
     0.271953272     0.532719533     0.452857143       3
     0.271854272     0.542718543     0.452857143       2
     0.281754282     0.542817543     0.452857143       3
     0.281655282     0.552816553     0.452857143       2
     0.291555292     0.552915553     0.452857143       3
     0.291456291     0.562914563     0.452857143       2
     0.301356301     0.563013563     0.452857143       3
     0.301257301     0.573012573     0.452857143       2
     0.311157311     0.573111573     0.452857143       3
     0.311058311     0.583110583     0.452857143       2
     0.320958321     0.583209583     0.452857143       3
     0.320859321     0.593208593     0.452857143       2
     0.330759331     0.593307593     0.452857143       3
     0.330660331     0.603306603     0.452857143       2
     0.340560341     0.603405603     0.452857143       3
     0.340461340     0.613404613     0.452857143       2
     0.350361350     0.613503614     0.452857143       3
     0.350262350     0.623502624     0.452857143       2
     0.360162360     0.623601624     0.452857143       3
     0.360063360     0.633600634     0.452857143       2
     0.369963370     0.633699634     0.452857143       3
     0.369864370     0.643698644     0.452857143       2
     0.379764380     0.643797644     0.452857143       3
     0.379665380     0.653796654     0.452857143       2
     0.389565390     0.653895654     0.452857143       3
     0.389466389     0.663894664     0.452857143       2
     0.399366399     0.663993664     0.452857143       3
     0.399267399     0.673992674     0.452857143       2
     0.409167409     0.674091674     0.452857143       3
     0.409068409     0.684090684     0.452857143       2
     0.418968419     0.684189684     0.452857143       3
     0.418869419     0.694188694     0.452857143       2
     0.428769429     0.694287694     0.452857143       3
     0.428670429     0.704286704     0.452857143       2
     0.438570439     0.704385704     0.452857143       3
     0.438471438     0.714384714     0.452857143       2
     0.448371448     0.714483714     0.452857143       3
     0.448272448     0.724482724     0.452857143       2
     0.458172458     0.724581725     0.452857143       3
     0.458073458     0.734580735     0.452857143       2
     0.467973468     0.734679735     0.452857143       3
     0.467874468     0.744678745     0.452857143       2
     0.477774478     0.744777745     0.452857143       3
     0.477675478     0.754776755     0.452857143       2
     0.487575488     0.754875755     0.452857143       3
     0.487476487     0.764874765     0.452857143       2
     0.497376497     0.764973765     0.452857143       3
     0.497277497     0.774972775     0.452857143       2
     0.507177507     0.775071775     0.452857143       3
     0.507078507     0.785070785     0.452857143       2
     0.516978517     0.785169785     0.452857143       3
     0.516879517     0.795168795     0.452857143       2
     0.526779527     0.795267795     0.452857143       3
     0.526680527     0.805266805     0.452857143       2
     0.536580537     0.805365805     0.452857143       3
     0.536481536     0.815364815     0.452857143       2
     0.546381546     0.815463815     0.452857143       3
     0.546282546     0.825462825     0.452857143       2
     0.556182556     0.825561826     0.452857143       3
     0.556083556     0.835560836     0.452857143       2
     0.565983566     0.835659836     0.452857143       3
     0.565884566     0.845658846     0.452857143       2
     0.575784576     0.845757846     0.452857143       3
     0.575685576     0.855756856     0.452857143       2
     0.585585586     0.855855856     0.452857143       3
     0.585486585     0.865854866     0.452857143       2
     0.595386595     0.865953866     0.452857143       3
     0.595287595     0.875952876     0.452857143       2
     0.605187605     0.876051876     0.452857143       3
     0.605088605     0.886050886     0.452857143       2
     0.614988615     0.886149886     0.452857143       3
     0.614889615     0.896148896     0.452857143       2
     0.624789625     0.896247896     0.452857143       3
     0.624690625     0.906246906     0.452857143       2
     0.634590635     0.906345906     0.452857143       3
     0.634491634     0.916344916     0.452857143       2
     0.644391644     0.916443916     0.452857143       3
     0.644292644     0.926442926     0.452857143       2
     0.654192654     0.926541927     0.452857143       3
     0.654093654     0.936540937     0.452857143       2
     0.663993664     0.936639937     0.452857143       3
     0.663894664     0.946638947     0.452857143       2
     0.673794674     0.946737947     0.452857143       3
     0.673695674     0.956736957     0.452857143       2
     0.683595684     0.956835957     0.452857143       3
     0.683496683     0.966834967     0.452857143       2
     0.693396693     0.966933967     0.452857143       3
     0.693297693     0.976932977     0.452857143       2
     0.703197703     0.977031977     0.452857143       3
     0.703098703     0.987030987     0.452857143       2
     0.712998713     0.987129987     0.452857143       3
     0.712899713     0.997128997     0.452857143       2
     0.722799723     0.997227997     0.452857143       3
     0.722700723     0.007227007     0.452857143       2
     0.732600733     0.007326007     0.452857143       3
     0.732501733     0.017325017     0.452857143       2
     0.742401742     0.017424017     0.452857143       3
     0.742302742     0.027423027     0.452857143       2
     0.752202752     0.027522028     0.452857143       3
     0.752103752     0.037521038     0.452857143       2
     0.762003762     0.037620038     0.452857143       3
     0.761904762     0.047619048     0.452857143       2
     0.771804772     0.047718048     0.452857143       3
     0.771705772     0.057717058     0.452857143       2
     0.781605782     0.057816058     0.452857143       3
     0.781506782     0.067815068     0.452857143       2
     0.791406791     0.067914068     0.452857143       3
     0.791307791     0.077913078     0.452857143       2
     0.801207801     0.078012078     0.452857143       3
     0.801108801     0.088011088     0.452857143       2
     0.811008811     0.088110088     0.452857143       3
     0.810909811     0.098109098     0.452857143       2
     0.820809821     0.098208098     0.452857143       3
     0.820710821     0.108207108     0.452857143       2
     0.830610831     0.108306108     0.452857143       3
     0.830511831     0.118305118     0.452857143       2
     0.840411840     0.118404118     0.452857143       3
     0.840312840     0.128403128     0.452857143       2
     0.850212850     0.128502129     0.452857143       3
     0.850113850     0.138501139     0.452857143       2
     0.860013860     0.138600139     0.452857143       3
     0.859914860     0.148599149     0.452857143       2
     0.869814870     0.148698149     0.452857143       3
     0.869715870     0.158697159     0.452857143       2
     0.879615880     0.158796159     0.452857143       3
     0.879516880     0.168795169     0.452857143       2
     0.889416889     0.168894169     0.452857143       3
     0.889317889     0.178893179     0.452857143       2
     0.899217899     0.178992179     0.452857143       3
     0.899118899     0.188991189     0.452857143       2
     0.909018909     0.189090189     0.452857143       3
     0.908919909     0.199089199     0.452857143       2
     0.918819919     0.199188199     0.452857143       3
     0.918720919     0.209187209     0.452857143       2
     0.928620929     0.209286209     0.452857143       3
     0.928521929     0.219285219     0.452857143       2
     0.938421938     0.219384219     0.452857143       3
     0.938322938     0.229383229     0.452857143       2
     0.948222948     0.229482229     0.452857143       3
     0.948123948     0.239481239     0.452857143       2
     0.958023958     0.239580240     0.452857143       3
     0.957924958     0.249579250     0.452857143       2
     0.967824968     0.249678250     0.452857143       3
     0.967725968     0.259677260     0.452857143       2
     0.977625978     0.259776260     0.452857143       3
     0.977526978     0.269775270     0.452857143       2
     0.987426987     0.269874270     0.452857143       3
     0.987327987     0.279873280     0.452857143       2
     0.997227997     0.279972280     0.452857143       3
     0.997128997     0.289971290     0.452857143       2
     0.007029007     0.290070290     0.452857143       3
     0.006930007     0.300069300     0.452857143       2
     0.016830017     0.300168300     0.452857143       3
     0.016731017     0.310167310     0.452857143       2
     0.026631027     0.310266310     0.452857143       3
     0.026532027     0.320265320     0.452857143       2
     0.036432036     0.320364320     0.452857143       3
     0.036333036     0.330363330     0.452857143       2
     0.046233046     0.330462330     0.452857143       3
     0.046134046     0.340461340     0.452857143       2
     0.056034056     0.340560341     0.452857143       3
     0.055935056     0.350559351     0.452857143       2
     0.065835066     0.350658351     0.452857143       3
     0.065736066     0.360657361     0.452857143       2
     0.075636076     0.360756361     0.452857143       3
     0.075537076     0.370755371     0.452857143       2
     0.085437085     0.370854371     0.452857143       3
     0.085338085     0.380853381     0.452857143       2
     0.095238095     0.380952381     0.452857143       3
     0.095139095     0.390951391     0.452857143       2
     0.105039105     0.391050391     0.452857143       3
     0.104940105     0.401049401     0.452857143       2
     0.114840115     0.401148401     0.452857143       3
     0.114741115     0.411147411     0.452857143       2
     0.124641125     0.411246411     0.452857143       3
     0.124542125     0.421245421     0.452857143       2
     0.134442134     0.421344421     0.452857143       3
     0.134343134     0.431343431     0.452857143       2
     0.144243144     0.431442431     0.452857143       3
     0.144144144     0.441441441     0.452857143       2
     0.154044154     0.441540442     0.452857143       3
     0.153945154     0.451539452     0.452857143       2
     0.163845164     0.451638452     0.452857143       3
     0.163746164     0.461637462     0.452857143       2
     0.173646174     0.461736462     0.452857143       3
     0.173547174     0.471735472     0.452857143       2
     0.183447183     0.471834472     0.452857143       3
     0.183348183     0.481833482     0.452857143       2
     0.193248193     0.481932482     0.452857143       3
     0.193149193     0.491931492     0.452857143       2
     0.203049203     0.492030492     0.452857143       3
     0.202950203     0.502029502     0.452857143       2
     0.212850213     0.502128502     0.452857143       3
     0.212751213     0.512127512     0.452857143       2
     0.222651223     0.512226512     0.452857143       3
     0.222552223     0.522225522     0.452857143       2
     0.232452232     0.522324522     0.452857143       3
     0.232353232     0.532323532     0.452857143       2
     0.242253242     0.532422532     0.452857143       3
     0.242154242     0.542421542     0.452857143       2
     0.252054252     0.542520543     0.452857143       3
     0.251955252     0.552519553     0.452857143       2
     0.261855262     0.552618553     0.452857143       3
     0.261756262     0.562617563     0.452857143       2
     0.271656272     0.562716563     0.452857143       3
     0.271557272     0.572715573     0.452857143       2
     0.281457281     0.572814573     0.452857143       3
     0.281358281     0.582813583     0.452857143       2
     0.291258291     0.582912583     0.452857143       3
     0.291159291     0.592911593     0.452857143       2
     0.301059301     0.593010593     0.452857143       3
     0.300960301     0.603009603     0.452857143       2
     0.310860311     0.603108603     0.452857143       3
     0.310761311     0.613107613     0.452857143       2
     0.320661321     0.613206613     0.452857143       3
     0.320562321     0.623205623     0.452857143       2
     0.330462330     0.623304623     0.452857143       3
     0.330363330     0.633303633     0.452857143       2
     0.340263340     0.633402633     0.452857143       3
     0.340164340     0.643401643     0.452857143       2
     0.350064350     0.643500644     0.452857143       3
     0.349965350     0.653499653     0.452857143       2
     0.359865360     0.653598654     0.452857143       3
     0.359766360     0.663597664     0.452857143       2
     0.369666370     0.663696664     0.452857143       3
     0.369567370     0.673695674     0.452857143       2
     0.379467379     0.673794674     0.452857143       3
     0.379368379     0.683793684     0.452857143       2
     0.389268389     0.683892684     0.452857143       3
     0.389169389     0.693891694     0.452857143       2
     0.399069399     0.693990694     0.452857143       3
     0.398970399     0.703989704     0.452857143       2
     0.408870409     0.704088704     0.452857143       3
     0.408771409     0.714087714     0.452857143       2
     0.418671419     0.714186714     0.452857143       3
     0.418572419     0.724185724     0.452857143       2
     0.428472428     0.724284724     0.452857143       3
     0.428373428     0.734283734     0.452857143       2
     0.438273438     0.734382734     0.452857143       3
     0.438174438     0.744381744     0.452857143       2
     0.448074448     0.744480744     0.452857143       3
     0.447975448     0.754479754     0.452857143       2
     0.457875458     0.754578755     0.452857143       3
     0.457776458     0.764577765     0.452857143       2
     0.467676468     0.764676765     0.452857143       3
     0.467577468     0.774675775     0.452857143       2
     0.477477477     0.774774775     0.452857143       3
     0.477378477     0.784773785     0.452857143       2
     0.487278487     0.784872785     0.452857143       3
     0.487179487     0.794871795     0.452857143       2
     0.497079497     0.794970795     0.452857143       3
     0.496980497     0.804969805     0.452857143       2
     0.506880507     0.805068805     0.452857143       3
     0.506781507     0.815067815     0.452857143       2
     0.516681517     0.815166815     0.452857143       3
     0.516582517     0.825165825     0.452857143       2
     0.526482526     0.825264825     0.452857143       3
     0.526383526     0.835263835     0.452857143       2
     0.536283536     0.835362835     0.452857143       3
     0.536184536     0.845361845     0.452857143       2
     0.546084546     0.845460845     0.452857143       3
     0.545985546     0.855459855     0.452857143       2
     0.555885556     0.855558856     0.452857143       3
     0.555786556     0.865557866     0.452857143       2
     0.565686566     0.865656866     0.452857143       3
     0.565587566     0.875655876     0.452857143       2
     0.575487575     0.875754876     0.452857143       3
     0.575388575     0.885753886     0.452857143       2
     0.585288585     0.885852886     0.452857143       3
     0.585189585     0.895851896     0.452857143       2
     0.595089595     0.895950896     0.452857143       3
     0.594990595     0.905949906     0.452857143       2
     0.604890605     0.906048906     0.452857143       3
     0.604791605     0.916047916     0.452857143       2
     0.614691615     0.916146916     0.452857143       3
     0.614592615     0.926145926     0.452857143       2
     0.624492624     0.926244926     0.452857143       3
     0.624393624     0.936243936     0.452857143       2
     0.634293634     0.936342936     0.452857143       3
     0.634194634     0.946341946     0.452857143       2
     0.644094644     0.946440946     0.452857143       3
     0.643995644     0.956439956     0.452857143       2
     0.653895654     0.956538957     0.452857143       3
     0.653796654     0.966537967     0.452857143       2
     0.663696664     0.966636967     0.452857143       3
     0.663597664     0.976635977     0.452857143       2
     0.673497673     0.976734977     0.452857143       3
     0.673398673     0.986733987     0.452857143       2
     0.683298683     0.986832987     0.452857143       3
     0.683199683     0.996831997     0.452857143       2
     0.693099693     0.996930997     0.452857143       3
     0.693000693     0.006930007     0.452857143       2
     0.702900703     0.007029007     0.452857143       3
     0.702801703     0.017028017     0.452857143       2
     0.712701713     0.017127017     0.452857143       3
     0.712602713     0.027126027     0.452857143       2
     0.722502723     0.027225027     0.452857143       3
     0.722403722     0.037224037     0.452857143       2
     0.732303732     0.037323037     0.452857143       3
     0.732204732     0.047322047     0.452857143       2
     0.742104742     0.047421047     0.452857143       3
     0.742005742     0.057420057     0.452857143       2
     0.751905752     0.057519058     0.452857143       3
     0.751806752     0.067518068     0.452857143       2
     0.761706762     0.067617068     0.452857143       3
     0.761607762     0.077616078     0.452857143       2
     0.771507772     0.077715078     0.452857143       3
     0.771408771     0.087714088     0.452857143       2
     0.781308781     0.087813088     0.452857143       3
     0.781209781     0.097812098     0.452857143       2
     0.791109791     0.097911098     0.452857143       3
     0.791010791     0.107910108     0.452857143       2
     0.800910801     0.108009108     0.452857143       3
     0.800811801     0.118008118     0.452857143       2
     0.810711811     0.118107118     0.452857143       3
     0.810612811     0.128106128     0.452857143       2
     0.820512821     0.128205128     0.452857143       3
     0.820413820     0.138204138     0.452857143       2
     0.830313830     0.138303138     0.452857143       3
     0.830214830     0.148302148     0.452857143       2
     0.840114840     0.148401148     0.452857143       3
     0.840015840     0.158400158     0.452857143       2
     0.849915850     0.158499158     0.452857143       3
     0.849816850     0.168498168     0.452857143       2
     0.859716860     0.168597169     0.452857143       3
     0.859617860     0.178596179     0.452857143       2
     0.869517870     0.178695179     0.452857143       3
     0.869418869     0.188694189     0.452857143       2
     0.879318879     0.188793189     0.452857143       3
     0.879219879     0.198792199     0.452857143       2
     0.889119889     0.198891199     0.452857143       3
     0.889020889     0.208890209     0.452857143       2
     0.898920899     0.208989209     0.452857143       3
     0.898821899     0.218988219     0.452857143       2
     0.908721909     0.219087219     0.452857143       3
     0.908622909     0.229086229     0.452857143       2
     0.918522919     0.229185229     0.452857143       3
     0.918423918     0.239184239     0.452857143       2
     0.928323928     0.239283239     0.452857143       3
     0.928224928     0.249282249     0.452857143       2
     0.938124938     0.249381249     0.452857143       3
     0.938025938     0.259380259     0.452857143       2
     0.947925948     0.259479259     0.452857143       3
     0.947826948     0.269478269     0.452857143       2
     0.957726958     0.269577270     0.452857143       3
     0.957627958     0.279576280     0.452857143       2
     0.967527968     0.279675280     0.452857143       3
     0.967428967     0.289674290     0.452857143       2
     0.977328977     0.289773290     0.452857143       3
     0.977229977     0.299772300     0.452857143       2
     0.987129987     0.299871300     0.452857143       3
     0.987030987     0.309870310     0.452857143       2
     0.996930997     0.309969310     0.452857143       3
     0.996831997     0.319968320     0.452857143       2
     0.006732007     0.320067320     0.452857143       3
     0.006633007     0.330066330     0.452857143       2
     0.016533017     0.330165330     0.452857143       3
     0.016434016     0.340164340     0.452857143       2
     0.026334026     0.340263340     0.452857143       3
     0.026235026     0.350262350     0.452857143       2
     0.036135036     0.350361350     0.452857143       3
     0.036036036     0.360360360     0.452857143       2
     0.045936046     0.360459360     0.452857143       3
     0.045837046     0.370458370     0.452857143       2
     0.055737056     0.370557371     0.452857143       3
     0.055638056     0.380556381     0.452857143       2
     0.065538066     0.380655381     0.452857143       3
     0.065439065     0.390654391     0.452857143       2
     0.075339075     0.390753391     0.452857143       3
     0.075240075     0.400752401     0.452857143       2
     0.085140085     0.400851401     0.452857143       3
     0.085041085     0.410850411     0.452857143       2
     0.094941095     0.410949411     0.452857143       3
     0.094842095     0.420948421     0.452857143       2
     0.104742105     0.421047421     0.452857143       3
     0.104643105     0.431046431     0.452857143       2
     0.114543115     0.431145431     0.452857143       3
     0.114444114     0.441144441     0.452857143       2
     0.124344124     0.441243441     0.452857143       3
     0.124245124     0.451242451     0.452857143       2
     0.134145134     0.451341451     0.452857143       3
     0.134046134     0.461340461     0.452857143       2
     0.143946144     0.461439461     0.452857143       3
     0.143847144     0.471438471     0.452857143       2
     0.153747154     0.471537472     0.452857143       3
     0.153648154     0.481536482     0.452857143       2
     0.163548164     0.481635482     0.452857143       3
     0.163449163     0.491634492     0.452857143       2
     0.173349173     0.491733492     0.452857143       3
     0.173250173     0.501732502     0.452857143       2
     0.183150183     0.501831502     0.452857143       3
     0.183051183     0.511830512     0.452857143       2
     0.192951193     0.511929512     0.452857143       3
     0.192852193     0.521928522     0.452857143       2
     0.202752203     0.522027522     0.452857143       3
     0.202653203     0.532026532     0.452857143       2
     0.212553213     0.532125532     0.452857143       3
     0.212454212     0.542124542     0.452857143       2
     0.222354222     0.542223542     0.452857143       3
     0.222255222     0.552222552     0.452857143       2
     0.232155232     0.552321552     0.452857143       3
     0.232056232     0.562320562     0.452857143       2
     0.241956242     0.562419562     0.452857143       3
     0.241857242     0.572418572     0.452857143       2
     0.251757252     0.572517573     0.452857143       3
     0.251658252     0.582516583     0.452857143       2
     0.261558262     0.582615583     0.452857143       3
     0.261459261     0.592614593     0.452857143       2
     0.271359271     0.592713593     0.452857143       3
     0.271260271     0.602712603     0.452857143       2
     0.281160281     0.602811603     0.452857143       3
     0.281061281     0.612810613     0.452857143       2
     0.290961291     0.612909613     0.452857143       3
     0.290862291     0.622908623     0.452857143       2
     0.300762301     0.623007623     0.452857143       3
     0.300663301     0.633006633     0.452857143       2
     0.310563311     0.633105633     0.452857143       3
     0.310464310     0.643104643     0.452857143       2
     0.320364320     0.643203643     0.452857143       3
     0.320265320     0.653202653     0.452857143       2
     0.330165330     0.653301653     0.452857143       3
     0.330066330     0.663300663     0.452857143       2
     0.339966340     0.663399663     0.452857143       3
     0.339867340     0.673398673     0.452857143       2
     0.349767350     0.673497673     0.452857143       3
     0.349668350     0.683496683     0.452857143       2
     0.359568360     0.683595684     0.452857143       3
     0.359469359     0.693594694     0.452857143       2
     0.369369369     0.693693694     0.452857143       3
     0.369270369     0.703692704     0.452857143       2
     0.379170379     0.703791704     0.452857143       3
     0.379071379     0.713790714     0.452857143       2
     0.388971389     0.713889714     0.452857143       3
     0.388872389     0.723888724     0.452857143       2
     0.398772399     0.723987724     0.452857143       3
     0.398673399     0.733986734     0.452857143       2
     0.408573409     0.734085734     0.452857143       3
     0.408474408     0.744084744     0.452857143       2
     0.418374418     0.744183744     0.452857143       3
     0.418275418     0.754182754     0.452857143       2
     0.428175428     0.754281754     0.452857143       3
     0.428076428     0.764280764     0.452857143       2
     0.437976438     0.764379764     0.452857143       3
     0.437877438     0.774378774     0.452857143       2
     0.447777448     0.774477774     0.452857143       3
     0.447678448     0.784476784     0.452857143       2
     0.457578458     0.784575785     0.452857143       3
     0.457479457     0.794574795     0.452857143       2
     0.467379467     0.794673795     0.452857143       3
     0.467280467     0.804672805     0.452857143       2
     0.477180477     0.804771805     0.452857143       3
     0.477081477     0.814770815     0.452857143       2
     0.486981487     0.814869815     0.452857143       3
     0.486882487     0.824868825     0.452857143       2
     0.496782497     0.824967825     0.452857143       3
     0.496683497     0.834966835     0.452857143       2
     0.506583507     0.835065835     0.452857143       3
     0.506484506     0.845064845     0.452857143       2
     0.516384516     0.845163845     0.452857143       3
     0.516285516     0.855162855     0.452857143       2
     0.526185526     0.855261855     0.452857143       3
     0.526086526     0.865260865     0.452857143       2
     0.535986536     0.865359865     0.452857143       3
     0.535887536     0.875358875     0.452857143       2
     0.545787546     0.875457875     0.452857143       3
     0.545688546     0.885456885     0.452857143       2
     0.555588556     0.885555886     0.452857143       3
     0.555489555     0.895554896     0.452857143       2
     0.565389565     0.895653896     0.452857143       3
     0.565290565     0.905652906     0.452857143       2
     0.575190575     0.905751906     0.452857143       3
     0.575091575     0.915750916     0.452857143       2
     0.584991585     0.915849916     0.452857143       3
     0.584892585     0.925848926     0.452857143       2
     0.594792595     0.925947926     0.452857143       3
     0.594693595     0.935946936     0.452857143       2
     0.604593605     0.936045936     0.452857143       3
     0.604494604     0.946044946     0.452857143       2
     0.614394614     0.946143946     0.452857143       3
     0.614295614     0.956142956     0.452857143       2
     0.624195624     0.956241956     0.452857143       3
     0.624096624     0.966240966     0.452857143       2
     0.633996634     0.966339966     0.452857143       3
     0.633897634     0.976338976     0.452857143       2
     0.643797644     0.976437976     0.452857143       3
     0.643698644     0.986436986     0.452857143       2
     0.653598654     0.986535987     0.452857143       3
     0.653499653     0.996534997     0.452857143       2
     0.663399663     0.996633997     0.452857143       3
     0.663300663     0.006633007     0.452857143       2
     0.673200673     0.006732007     0.452857143       3
     0.673101673     0.016731017     0.452857143       2
     0.683001683     0.016830017     0.452857143       3
     0.682902683     0.026829027     0.452857143       2
     0.692802693     0.026928027     0.452857143       3
     0.692703693     0.036927037     0.452857143       2
     0.702603703     0.037026037     0.452857143       3
     0.702504703     0.047025047     0.452857143       2
     0.712404712     0.047124047     0.452857143       3
     0.712305712     0.057123057     0.452857143       2
     0.722205722     0.057222057     0.452857143       3
     0.722106722     0.067221067     0.452857143       2
     0.732006732     0.067320067     0.452857143       3
     0.731907732     0.077319077     0.452857143       2
     0.741807742     0.077418077     0.452857143       3
     0.741708742     0.087417087     0.452857143       2
     0.751608752     0.087516088     0.452857143       3
     0.751509752     0.097515098     0.452857143       2
     0.761409761     0.097614098     0.452857143       3
     0.761310761     0.107613108     0.452857143       2
     0.771210771     0.107712108     0.452857143       3
     0.771111771     0.117711118     0.452857143       2
     0.781011781     0.117810118     0.452857143       3
     0.780912781     0.127809128     0.452857143       2
     0.790812791     0.127908128     0.452857143       3
     0.790713791     0.137907138     0.452857143       2
     0.800613801     0.138006138     0.452857143       3
     0.800514801     0.148005148     0.452857143       2
     0.810414810     0.148104148     0.452857143       3
     0.810315810     0.158103158     0.452857143       2
     0.820215820     0.158202158     0.452857143       3
     0.820116820     0.168201168     0.452857143       2
     0.830016830     0.168300168     0.452857143       3
     0.829917830     0.178299178     0.452857143       2
     0.839817840     0.178398178     0.452857143       3
     0.839718840     0.188397188     0.452857143       2
     0.849618850     0.188496188     0.452857143       3
     0.849519850     0.198495198     0.452857143       2
     0.859419859     0.198594199     0.452857143       3
     0.859320859     0.208593209     0.452857143       2
     0.869220869     0.208692209     0.452857143       3
     0.869121869     0.218691219     0.452857143       2
     0.879021879     0.218790219     0.452857143       3
     0.878922879     0.228789229     0.452857143       2
     0.888822889     0.228888229     0.452857143       3
     0.888723889     0.238887239     0.452857143       2
     0.898623899     0.238986239     0.452857143       3
     0.898524899     0.248985249     0.452857143       2
     0.908424908     0.249084249     0.452857143       3
     0.908325908     0.259083259     0.452857143       2
     0.918225918     0.259182259     0.452857143       3
     0.918126918     0.269181269     0.452857143       2
     0.928026928     0.269280269     0.452857143       3
     0.927927928     0.279279279     0.452857143       2
     0.937827938     0.279378279     0.452857143       3
     0.937728938     0.289377289     0.452857143       2
     0.947628948     0.289476289     0.452857143       3
     0.947529948     0.299475299     0.452857143       2
     0.957429957     0.299574300     0.452857143       3
     0.957330957     0.309573310     0.452857143       2
     0.967230967     0.309672310     0.452857143       3
     0.967131967     0.319671320     0.452857143       2
     0.977031977     0.319770320     0.452857143       3
     0.976932977     0.329769330     0.452857143       2
     0.986832987     0.329868330     0.452857143       3
     0.986733987     0.339867340     0.452857143       2
     0.996633997     0.339966340     0.452857143       3
     0.996534997     0.349965350     0.452857143       2
     0.006435006     0.350064350     0.452857143       3
     0.006336006     0.360063360     0.452857143       2
     0.016236016     0.360162360     0.452857143       3
     0.016137016     0.370161370     0.452857143       2
     0.026037026     0.370260370     0.452857143       3
     0.025938026     0.380259380     0.452857143       2
     0.035838036     0.380358380     0.452857143       3
     0.035739036     0.390357390     0.452857143       2
     0.045639046     0.390456390     0.452857143       3
     0.045540046     0.400455400     0.452857143       2
     0.055440055     0.400554401     0.452857143       3
     0.055341055     0.410553411     0.452857143       2
     0.065241065     0.410652411     0.452857143       3
     0.065142065     0.420651421     0.452857143       2
     0.075042075     0.420750421     0.452857143       3
     0.074943075     0.430749431     0.452857143       2
     0.084843085     0.430848431     0.452857143       3
     0.084744085     0.440847441     0.452857143       2
     0.094644095     0.440946441     0.452857143       3
     0.094545095     0.450945451     0.452857143       2
     0.104445104     0.451044451     0.452857143       3
     0.104346104     0.461043461     0.452857143       2
     0.114246114     0.461142461     0.452857143       3
     0.114147114     0.471141471     0.452857143       2
     0.124047124     0.471240471     0.452857143       3
     0.123948124     0.481239481     0.452857143       2
     0.133848134     0.481338481     0.452857143       3
     0.133749134     0.491337491     0.452857143       2
     0.143649144     0.491436491     0.452857143       3
     0.143550144     0.501435501     0.452857143       2
     0.153450153     0.501534502     0.452857143       3
     0.153351153     0.511533512     0.452857143       2
     0.163251163     0.511632512     0.452857143       3
     0.163152163     0.521631522     0.452857143       2
     0.173052173     0.521730522     0.452857143       3
     0.172953173     0.531729532     0.452857143       2
     0.182853183     0.531828532     0.452857143       3
     0.182754183     0.541827542     0.452857143       2
     0.192654193     0.541926542     0.452857143       3
     0.192555193     0.551925552     0.452857143       2
     0.202455202     0.552024552     0.452857143       3
     0.202356202     0.562023562     0.452857143       2
     0.212256212     0.562122562     0.452857143       3
     0.212157212     0.572121572     0.452857143       2
     0.222057222     0.572220572     0.452857143       3
     0.221958222     0.582219582     0.452857143       2
     0.231858232     0.582318582     0.452857143       3
     0.231759232     0.592317592     0.452857143       2
     0.241659242     0.592416592     0.452857143       3
     0.241560242     0.602415602     0.452857143       2
     0.251460251     0.602514603     0.452857143       3
     0.251361251     0.612513613     0.452857143       2
     0.261261261     0.612612613     0.452857143       3
     0.261162261     0.622611623     0.452857143       2
     0.271062271     0.622710623     0.452857143       3
     0.270963271     0.632709633     0.452857143       2
     0.280863281     0.632808633     0.452857143       3
     0.280764281     0.642807643     0.452857143       2
     0.290664291     0.642906643     0.452857143       3
     0.290565291     0.652905653     0.452857143       2
     0.300465300     0.653004653     0.452857143       3
     0.300366300     0.663003663     0.452857143       2
     0.310266310     0.663102663     0.452857143       3
     0.310167310     0.673101673     0.452857143       2
     0.320067320     0.673200673     0.452857143       3
     0.319968320     0.683199683     0.452857143       2
     0.329868330     0.683298683     0.452857143       3
     0.329769330     0.693297693     0.452857143       2
     0.339669340     0.693396693     0.452857143       3
     0.339570340     0.703395703     0.452857143       2
     0.349470349     0.703494703     0.452857143       3
     0.349371349     0.713493713     0.452857143       2
     0.359271359     0.713592714     0.452857143       3
     0.359172359     0.723591724     0.452857143       2
     0.369072369     0.723690724     0.452857143       3
     0.368973369     0.733689734     0.452857143       2
     0.378873379     0.733788734     0.452857143       3
     0.378774379     0.743787744     0.452857143       2
     0.388674389     0.743886744     0.452857143       3
     0.388575389     0.753885754     0.452857143       2
     0.398475398     0.753984754     0.452857143       3
     0.398376398     0.763983764     0.452857143       2
     0.408276408     0.764082764     0.452857143       3
     0.408177408     0.774081774     0.452857143       2
     0.418077418     0.774180774     0.452857143       3
     0.417978418     0.784179784     0.452857143       2
     0.427878428     0.784278784     0.452857143       3
     0.427779428     0.794277794     0.452857143       2
     0.437679438     0.794376794     0.452857143       3
     0.437580438     0.804375804     0.452857143       2
     0.447480447     0.804474804     0.452857143       3
     0.447381447     0.814473814     0.452857143       2
     0.457281457     0.814572815     0.452857143       3
     0.457182457     0.824571825     0.452857143       2
     0.467082467     0.824670825     0.452857143       3
     0.466983467     0.834669835     0.452857143       2
     0.476883477     0.834768835     0.452857143       3
     0.476784477     0.844767845     0.452857143       2
     0.486684487     0.844866845     0.452857143       3
     0.486585487     0.854865855     0.452857143       2
     0.496485496     0.854964855     0.452857143       3
     0.496386496     0.864963865     0.452857143       2
     0.506286506     0.865062865     0.452857143       3
     0.506187506     0.875061875     0.452857143       2
     0.516087516     0.875160875     0.452857143       3
     0.515988516     0.885159885     0.452857143       2
     0.525888526     0.885258885     0.452857143       3
     0.525789526     0.895257895     0.452857143       2
     0.535689536     0.895356895     0.452857143       3
     0.535590536     0.905355905     0.452857143       2
     0.545490545     0.905454905     0.452857143       3
     0.545391545     0.915453915     0.452857143       2
     0.555291555     0.915552916     0.452857143       3
     0.555192555     0.925551926     0.452857143       2
     0.565092565     0.925650926     0.452857143       3
     0.564993565     0.935649936     0.452857143       2
     0.574893575     0.935748936     0.452857143       3
     0.574794575     0.945747946     0.452857143       2
     0.584694585     0.945846946     0.452857143       3
     0.584595585     0.955845956     0.452857143       2
     0.594495594     0.955944956     0.452857143       3
     0.594396594     0.965943966     0.452857143       2
     0.604296604     0.966042966     0.452857143       3
     0.604197604     0.976041976     0.452857143       2
     0.614097614     0.976140976     0.452857143       3
     0.613998614     0.986139986     0.452857143       2
     0.623898624     0.986238986     0.452857143       3
     0.623799624     0.996237996     0.452857143       2
     0.633699634     0.996336996     0.452857143       3
     0.633600634     0.006336006     0.452857143       2
     0.643500644     0.006435006     0.452857143       3
     0.643401643     0.016434016     0.452857143       2
     0.653301653     0.016533017     0.452857143       3
     0.653202653     0.026532027     0.452857143       2
     0.663102663     0.026631027     0.452857143       3
     0.663003663     0.036630037     0.452857143       2
     0.672903673     0.036729037     0.452857143       3
     0.672804673     0.046728047     0.452857143       2
     0.682704683     0.046827047     0.452857143       3
     0.682605683     0.056826057     0.452857143       2
     0.692505693     0.056925057     0.452857143       3
     0.692406692     0.066924067     0.452857143       2
     0.702306702     0.067023067     0.452857143       3
     0.702207702     0.077022077     0.452857143       2
     0.712107712     0.077121077     0.452857143       3
     0.712008712     0.087120087     0.452857143       2
     0.721908722     0.087219087     0.452857143       3
     0.721809722     0.097218097     0.452857143       2
     0.731709732     0.097317097     0.452857143       3
     0.731610732     0.107316107     0.452857143       2
     0.741510742     0.107415107     0.452857143       3
     0.741411741     0.117414117     0.452857143       2
     0.751311751     0.117513118     0.452857143       3
     0.751212751     0.127512128     0.452857143       2
     0.761112761     0.127611128     0.452857143       3
     0.761013761     0.137610138     0.452857143       2
     0.770913771     0.137709138     0.452857143       3
     0.770814771     0.147708148     0.452857143       2
     0.780714781     0.147807148     0.452857143       3
     0.780615781     0.157806158     0.452857143       2
     0.790515791     0.157905158     0.452857143       3
     0.790416790     0.167904168     0.452857143       2
     0.800316800     0.168003168     0.452857143       3
     0.800217800     0.178002178     0.452857143       2
     0.810117810     0.178101178     0.452857143       3
     0.810018810     0.188100188     0.452857143       2
     0.819918820     0.188199188     0.452857143       3
     0.819819820     0.198198198     0.452857143       2
     0.829719830     0.198297198     0.452857143       3
     0.829620830     0.208296208     0.452857143       2
     0.839520840     0.208395208     0.452857143       3
     0.839421839     0.218394218     0.452857143       2
     0.849321849     0.218493218     0.452857143       3
     0.849222849     0.228492228     0.452857143       2
     0.859122859     0.228591229     0.452857143       3
     0.859023859     0.238590239     0.452857143       2
     0.868923869     0.238689239     0.452857143       3
     0.868824869     0.248688249     0.452857143       2
     0.878724879     0.248787249     0.452857143       3
     0.878625879     0.258786259     0.452857143       2
     0.888525889     0.258885259     0.452857143       3
     0.888426888     0.268884269     0.452857143       2
     0.898326898     0.268983269     0.452857143       3
     0.898227898     0.278982279     0.452857143       2
     0.908127908     0.279081279     0.452857143       3
     0.908028908     0.289080289     0.452857143       2
     0.917928918     0.289179289     0.452857143       3
     0.917829918     0.299178299     0.452857143       2
     0.927729928     0.299277299     0.452857143       3
     0.927630928     0.309276309     0.452857143       2
     0.937530938     0.309375309     0.452857143       3
     0.937431937     0.319374319     0.452857143       2
     0.947331947     0.319473319     0.452857143       3
     0.947232947     0.329472329     0.452857143       2
     0.957132957     0.329571330     0.452857143       3
     0.957033957     0.339570340     0.452857143       2
     0.966933967     0.339669340     0.452857143       3
     0.966834967     0.349668350     0.452857143       2
     0.976734977     0.349767350     0.452857143       3
     0.976635977     0.359766360     0.452857143       2
     0.986535987     0.359865360     0.452857143       3
     0.986436986     0.369864370     0.452857143       2
     0.996336996     0.369963370     0.452857143       3
     0.996237996     0.379962380     0.452857143       2
     0.006138006     0.380061380     0.452857143       3
     0.006039006     0.390060390     0.452857143       2
     0.015939016     0.390159390     0.452857143       3
     0.015840016     0.400158400     0.452857143       2
     0.025740026     0.400257400     0.452857143       3
     0.025641026     0.410256410     0.452857143       2
     0.035541036     0.410355410     0.452857143       3
     0.035442035     0.420354420     0.452857143       2
     0.045342045     0.420453420     0.452857143       3
     0.045243045     0.430452430     0.452857143       2
     0.055143055     0.430551431     0.452857143       3
     0.055044055     0.440550441     0.452857143       2
     0.064944065     0.440649441     0.452857143       3
     0.064845065     0.450648451     0.452857143       2
     0.074745075     0.450747451     0.452857143       3
     0.074646075     0.460746461     0.452857143       2
     0.084546085     0.460845461     0.452857143       3
     0.084447084     0.470844471     0.452857143       2
     0.094347094     0.470943471     0.452857143       3
     0.094248094     0.480942481     0.452857143       2
     0.104148104     0.481041481     0.452857143       3
     0.104049104     0.491040491     0.452857143       2
     0.113949114     0.491139491     0.452857143       3
     0.113850114     0.501138501     0.452857143       2
     0.123750124     0.501237501     0.452857143       3
     0.123651124     0.511236511     0.452857143       2
     0.133551134     0.511335511     0.452857143       3
     0.133452133     0.521334521     0.452857143       2
     0.143352143     0.521433521     0.452857143       3
     0.143253143     0.531432531     0.452857143       2
     0.153153153     0.531531532     0.452857143       3
     0.153054153     0.541530542     0.452857143       2
     0.162954163     0.541629542     0.452857143       3
     0.162855163     0.551628552     0.452857143       2
     0.172755173     0.551727552     0.452857143       3
     0.172656173     0.561726562     0.452857143       2
     0.182556183     0.561825562     0.452857143       3
     0.182457182     0.571824572     0.452857143       2
     0.192357192     0.571923572     0.452857143       3
     0.192258192     0.581922582     0.452857143       2
     0.202158202     0.582021582     0.452857143       3
     0.202059202     0.592020592     0.452857143       2
     0.211959212     0.592119592     0.452857143       3
     0.211860212     0.602118602     0.452857143       2
     0.221760222     0.602217602     0.452857143       3
     0.221661222     0.612216612     0.452857143       2
     0.231561232     0.612315612     0.452857143       3
     0.231462231     0.622314622     0.452857143       2
     0.241362241     0.622413622     0.452857143       3
     0.241263241     0.632412632     0.452857143       2
     0.251163251     0.632511633     0.452857143       3
     0.251064251     0.642510643     0.452857143       2
     0.260964261     0.642609643     0.452857143       3
     0.260865261     0.652608653     0.452857143       2
     0.270765271     0.652707653     0.452857143       3
     0.270666271     0.662706663     0.452857143       2
     0.280566281     0.662805663     0.452857143       3
     0.280467280     0.672804673     0.452857143       2
     0.290367290     0.672903673     0.452857143       3
     0.290268290     0.682902683     0.452857143       2
     0.300168300     0.683001683     0.452857143       3
     0.300069300     0.693000693     0.452857143       2
     0.309969310     0.693099693     0.452857143       3
     0.309870310     0.703098703     0.452857143       2
     0.319770320     0.703197703     0.452857143       3
     0.319671320     0.713196713     0.452857143       2
     0.329571330     0.713295713     0.452857143       3
     0.329472329     0.723294723     0.452857143       2
     0.339372339     0.723393723     0.452857143       3
     0.339273339     0.733392733     0.452857143       2
     0.349173349     0.733491733     0.452857143       3
     0.349074349     0.743490743     0.452857143       2
     0.358974359     0.743589744     0.452857143       3
     0.358875359     0.753588754     0.452857143       2
     0.368775369     0.753687754     0.452857143       3
     0.368676369     0.763686764     0.452857143       2
     0.378576379     0.763785764     0.452857143       3
     0.378477378     0.773784774     0.452857143       2
     0.388377388     0.773883774     0.452857143       3
     0.388278388     0.783882784     0.452857143       2
     0.398178398     0.783981784     0.452857143       3
     0.398079398     0.793980794     0.452857143       2
     0.407979408     0.794079794     0.452857143       3
     0.407880408     0.804078804     0.452857143       2
     0.417780418     0.804177804     0.452857143       3
     0.417681418     0.814176814     0.452857143       2
     0.427581428     0.814275814     0.452857143       3
     0.427482427     0.824274824     0.452857143       2
     0.437382437     0.824373824     0.452857143       3
     0.437283437     0.834372834     0.452857143       2
     0.447183447     0.834471834     0.452857143       3
     0.447084447     0.844470844     0.452857143       2
     0.456984457     0.844569845     0.452857143       3
     0.456885457     0.854568855     0.452857143       2
     0.466785467     0.854667855     0.452857143       3
     0.466686467     0.864666865     0.452857143       2
     0.476586477     0.864765865     0.452857143       3
     0.476487476     0.874764875     0.452857143       2
     0.486387486     0.874863875     0.452857143       3
     0.486288486     0.884862885     0.452857143       2
     0.496188496     0.884961885     0.452857143       3
     0.496089496     0.894960895     0.452857143       2
     0.505989506     0.895059895     0.452857143       3
     0.505890506     0.905058905     0.452857143       2
     0.515790516     0.905157905     0.452857143       3
     0.515691516     0.915156915     0.452857143       2
     0.525591526     0.915255915     0.452857143       3
     0.525492525     0.925254925     0.452857143       2
     0.535392535     0.925353925     0.452857143       3
     0.535293535     0.935352935     0.452857143       2
     0.545193545     0.935451935     0.452857143       3
     0.545094545     0.945450945     0.452857143       2
     0.554994555     0.945549946     0.452857143       3
     0.554895555     0.955548956     0.452857143       2
     0.564795565     0.955647956     0.452857143       3
     0.564696565     0.965646966     0.452857143       2
     0.574596575     0.965745966     0.452857143       3
     0.574497574     0.975744976     0.452857143       2
     0.584397584     0.975843976     0.452857143       3
     0.584298584     0.985842986     0.452857143       2
     0.594198594     0.985941986     0.452857143       3
     0.594099594     0.995940996     0.452857143       2
     0.603999604     0.996039996     0.452857143       3
     0.603900604     0.006039006     0.452857143       2
     0.613800614     0.006138006     0.452857143       3
     0.613701614     0.016137016     0.452857143       2
     0.623601624     0.016236016     0.452857143       3
     0.623502624     0.026235026     0.452857143       2
     0.633402633     0.026334026     0.452857143       3
     0.633303633     0.036333036     0.452857143       2
     0.643203643     0.036432036     0.452857143       3
     0.643104643     0.046431046     0.452857143       2
     0.653004653     0.046530047     0.452857143       3
     0.652905653     0.056529057     0.452857143       2
     0.662805663     0.056628057     0.452857143       3
     0.662706663     0.066627067     0.452857143       2
     0.672606673     0.066726067     0.452857143       3
     0.672507673     0.076725077     0.452857143       2
     0.682407682     0.076824077     0.452857143       3
     0.682308682     0.086823087     0.452857143       2
     0.692208692     0.086922087     0.452857143       3
     0.692109692     0.096921097     0.452857143       2
     0.702009702     0.097020097     0.452857143       3
     0.701910702     0.107019107     0.452857143       2
     0.711810712     0.107118107     0.452857143       3
     0.711711712     0.117117117     0.452857143       2
     0.721611722     0.117216117     0.452857143       3
     0.721512722     0.127215127     0.452857143       2
     0.731412731     0.127314127     0.452857143       3
     0.731313731     0.137313137     0.452857143       2
     0.741213741     0.137412137     0.452857143       3
     0.741114741     0.147411147     0.452857143       2
     0.751014751     0.147510148     0.452857143       3
     0.750915751     0.157509158     0.452857143       2
     0.760815761     0.157608158     0.452857143       3
     0.760716761     0.167607168     0.452857143       2
     0.770616771     0.167706168     0.452857143       3
     0.770517771     0.177705178     0.452857143       2
     0.780417780     0.177804178     0.452857143       3
     0.780318780     0.187803188     0.452857143       2
     0.790218790     0.187902188     0.452857143       3
     0.790119790     0.197901198     0.452857143       2
     0.800019800     0.198000198     0.452857143       3
     0.799920800     0.207999208     0.452857143       2
     0.809820810     0.208098208     0.452857143       3
     0.809721810     0.218097218     0.452857143       2
     0.819621820     0.218196218     0.452857143       3
     0.819522820     0.228195228     0.452857143       2
     0.829422829     0.228294228     0.452857143       3
     0.829323829     0.238293238     0.452857143       2
     0.839223839     0.238392238     0.452857143       3
     0.839124839     0.248391248     0.452857143       2
     0.849024849     0.248490248     0.452857143       3
     0.848925849     0.258489258     0.452857143       2
     0.858825859     0.258588259     0.452857143       3
     0.858726859     0.268587269     0.452857143       2
     0.868626869     0.268686269     0.452857143       3
     0.868527869     0.278685279     0.452857143       2
     0.878427878     0.278784279     0.452857143       3
     0.878328878     0.288783289     0.452857143       2
     0.888228888     0.288882289     0.452857143       3
     0.888129888     0.298881299     0.452857143       2
     0.898029898     0.298980299     0.452857143       3
     0.897930898     0.308979309     0.452857143       2
     0.907830908     0.309078309     0.452857143       3
     0.907731908     0.319077319     0.452857143       2
     0.917631918     0.319176319     0.452857143       3
     0.917532918     0.329175329     0.452857143       2
     0.927432927     0.329274329     0.452857143       3
     0.927333927     0.339273339     0.452857143       2
     0.937233937     0.339372339     0.452857143       3
     0.937134937     0.349371349     0.452857143       2
     0.947034947     0.349470349     0.452857143       3
     0.946935947     0.359469359     0.452857143       2
     0.956835957     0.359568360     0.452857143       3
     0.956736957     0.369567370     0.452857143       2
     0.966636967     0.369666370     0.452857143       3
     0.966537967     0.379665380     0.452857143       2
     0.976437976     0.379764380     0.452857143       3
     0.976338976     0.389763390     0.452857143       2
     0.986238986     0.389862390     0.452857143       3
     0.986139986     0.399861400     0.452857143       2
     0.996039996     0.399960400     0.452857143       3
     0.995940996     0.409959410     0.452857143       2
     0.005841006     0.410058410     0.452857143       3
     0.005742006     0.420057420     0.452857143       2
     0.015642016     0.420156420     0.452857143       3
     0.015543016     0.430155430     0.452857143       2
     0.025443025     0.430254430     0.452857143       3
     0.025344025     0.440253440     0.452857143       2
     0.035244035     0.440352440     0.452857143       3
     0.035145035     0.450351450     0.452857143       2
     0.045045045     0.450450450     0.452857143       3
     0.044946045     0.460449460     0.452857143       2
     0.054846055     0.460548461     0.452857143       3
     0.054747055     0.470547471     0.452857143       2
     0.064647065     0.470646471     0.452857143       3
     0.064548065     0.480645481     0.452857143       2
     0.074448074     0.480744481     0.452857143       3
     0.074349074     0.490743491     0.452857143       2
     0.084249084     0.490842491     0.452857143       3
     0.084150084     0.500841501     0.452857143       2
     0.094050094     0.500940501     0.452857143       3
     0.093951094     0.510939511     0.452857143       2
     0.103851104     0.511038511     0.452857143       3
     0.103752104     0.521037521     0.452857143       2
     0.113652114     0.521136521     0.452857143       3
     0.113553114     0.531135531     0.452857143       2
     0.123453123     0.531234531     0.452857143       3
     0.123354123     0.541233541     0.452857143       2
     0.133254133     0.541332541     0.452857143       3
     0.133155133     0.551331551     0.452857143       2
     0.143055143     0.551430551     0.452857143       3
     0.142956143     0.561429561     0.452857143       2
     0.152856153     0.561528562     0.452857143       3
     0.152757153     0.571527572     0.452857143       2
     0.162657163     0.571626572     0.452857143       3
     0.162558163     0.581625582     0.452857143       2
     0.172458172     0.581724582     0.452857143       3
     0.172359172     0.591723592     0.452857143       2
     0.182259182     0.591822592     0.452857143       3
     0.182160182     0.601821602     0.452857143       2
     0.192060192     0.601920602     0.452857143       3
     0.191961192     0.611919612     0.452857143       2
     0.201861202     0.612018612     0.452857143       3
     0.201762202     0.622017622     0.452857143       2
     0.211662212     0.622116622     0.452857143       3
     0.211563212     0.632115632     0.452857143       2
     0.221463221     0.632214632     0.452857143       3
     0.221364221     0.642213642     0.452857143       2
     0.231264231     0.642312642     0.452857143       3
     0.231165231     0.652311652     0.452857143       2
     0.241065241     0.652410652     0.452857143       3
     0.240966241     0.662409662     0.452857143       2
     0.250866251     0.662508663     0.452857143       3
     0.250767251     0.672507673     0.452857143       2
     0.260667261     0.672606673     0.452857143       3
     0.260568261     0.682605683     0.452857143       2
     0.270468270     0.682704683     0.452857143       3
     0.270369270     0.692703693     0.452857143       2
     0.280269280     0.692802693     0.452857143       3
     0.280170280     0.702801703     0.452857143       2
     0.290070290     0.702900703     0.452857143       3
     0.289971290     0.712899713     0.452857143       2
     0.299871300     0.712998713     0.452857143       3
     0.299772300     0.722997723     0.452857143       2
     0.309672310     0.723096723     0.452857143       3
     0.309573310     0.733095733     0.452857143       2
     0.319473319     0.733194733     0.452857143       3
     0.319374319     0.743193743     0.452857143       2
     0.329274329     0.743292743     0.452857143       3
     0.329175329     0.753291753     0.452857143       2
     0.339075339     0.753390753     0.452857143       3
     0.338976339     0.763389763     0.452857143       2
     0.348876349     0.763488763     0.452857143       3
     0.348777349     0.773487773     0.452857143       2
     0.358677359     0.773586774     0.452857143       3
     0.358578359     0.783585784     0.452857143       2
     0.368478368     0.783684784     0.452857143       3
     0.368379368     0.793683794     0.452857143       2
     0.378279378     0.793782794     0.452857143       3
     0.378180378     0.803781804     0.452857143       2
     0.388080388     0.803880804     0.452857143       3
     0.387981388     0.813879814     0.452857143       2
     0.397881398     0.813978814     0.452857143       3
     0.397782398     0.823977824     0.452857143       2
     0.407682408     0.824076824     0.452857143       3
     0.407583408     0.834075834     0.452857143       2
     0.417483417     0.834174834     0.452857143       3
     0.417384417     0.844173844     0.452857143       2
     0.427284427     0.844272844     0.452857143       3
     0.427185427     0.854271854     0.452857143       2
     0.437085437     0.854370854     0.452857143       3
     0.436986437     0.864369864     0.452857143       2
     0.446886447     0.864468864     0.452857143       3
     0.446787447     0.874467874     0.452857143       2
     0.456687457     0.874566875     0.452857143       3
     0.456588457     0.884565885     0.452857143       2
     0.466488466     0.884664885     0.452857143       3
     0.466389466     0.894663895     0.452857143       2
     0.476289476     0.894762895     0.452857143       3
     0.476190476     0.904761905     0.452857143       2
     0.486090486     0.904860905     0.452857143       3
     0.485991486     0.914859915     0.452857143       2
     0.495891496     0.914958915     0.452857143       3
     0.495792496     0.924957925     0.452857143       2
     0.505692506     0.925056925     0.452857143       3
     0.505593506     0.935055935     0.452857143       2
     0.515493515     0.935154935     0.452857143       3
     0.515394515     0.945153945     0.452857143       2
     0.525294525     0.945252945     0.452857143       3
     0.525195525     0.955251955     0.452857143       2
     0.535095535     0.955350955     0.452857143       3
     0.534996535     0.965349965     0.452857143       2
     0.544896545     0.965448965     0.452857143       3
     0.544797545     0.975447975     0.452857143       2
     0.554697555     0.975546976     0.452857143       3
     0.554598555     0.985545986     0.452857143       2
     0.564498564     0.985644986     0.452857143       3
     0.564399564     0.995643996     0.452857143       2
     0.574299574     0.995742996     0.452857143       3
     0.574200574     0.005742006     0.452857143       2
     0.584100584     0.005841006     0.452857143       3
     0.584001584     0.015840016     0.452857143       2
     0.593901594     0.015939016     0.452857143       3
     0.593802594     0.025938026     0.452857143       2
     0.603702604     0.026037026     0.452857143       3
     0.603603604     0.036036036     0.452857143       2
     0.613503614     0.036135036     0.452857143       3
     0.613404613     0.046134046     0.452857143       2
     0.623304623     0.046233046     0.452857143       3
     0.623205623     0.056232056     0.452857143       2
     0.633105633     0.056331056     0.452857143       3
     0.633006633     0.066330066     0.452857143       2
     0.642906643     0.066429066     0.452857143       3
     0.642807643     0.076428076     0.452857143       2
     0.652707653     0.076527077     0.452857143       3
     0.652608653     0.086526087     0.452857143       2
     0.662508663     0.086625087     0.452857143       3
     0.662409662     0.096624097     0.452857143       2
     0.672309672     0.096723097     0.452857143       3
     0.672210672     0.106722107     0.452857143       2
     0.682110682     0.106821107     0.452857143       3
     0.682011682     0.116820117     0.452857143       2
     0.691911692     0.116919117     0.452857143       3
     0.691812692     0.126918127     0.452857143       2
     0.701712702     0.127017127     0.452857143       3
     0.701613702     0.137016137     0.452857143       2
     0.711513712     0.137115137     0.452857143       3
     0.711414711     0.147114147     0.452857143       2
     0.721314721     0.147213147     0.452857143       3
     0.721215721     0.157212157     0.452857143       2
     0.731115731     0.157311157     0.452857143       3
     0.731016731     0.167310167     0.452857143       2
     0.740916741     0.167409167     0.452857143       3
     0.740817741     0.177408177     0.452857143       2
     0.750717751     0.177507178     0.452857143       3
     0.750618751     0.187506188     0.452857143       2
     0.760518761     0.187605188     0.452857143       3
     0.760419760     0.197604198     0.452857143       2
     0.770319770     0.197703198     0.452857143       3
     0.770220770     0.207702208     0.452857143       2
     0.780120780     0.207801208     0.452857143       3
     0.780021780     0.217800218     0.452857143       2
     0.789921790     0.217899218     0.452857143       3
     0.789822790     0.227898228     0.452857143       2
     0.799722800     0.227997228     0.452857143       3
     0.799623800     0.237996238     0.452857143       2
     0.809523810     0.238095238     0.452857143       3
     0.809424809     0.248094248     0.452857143       2
     0.819324819     0.248193248     0.452857143       3
     0.819225819     0.258192258     0.452857143       2
     0.829125829     0.258291258     0.452857143       3
     0.829026829     0.268290268     0.452857143       2
     0.838926839     0.268389268     0.452857143       3
     0.838827839     0.278388278     0.452857143       2
     0.848727849     0.278487278     0.452857143       3
     0.848628849     0.288486288     0.452857143       2
     0.858528859     0.288585289     0.452857143       3
     0.858429858     0.298584299     0.452857143       2
     0.868329868     0.298683299     0.452857143       3
     0.868230868     0.308682309     0.452857143       2
     0.878130878     0.308781309     0.452857143       3
     0.878031878     0.318780319     0.452857143       2
     0.887931888     0.318879319     0.452857143       3
     0.887832888     0.328878329     0.452857143       2
     0.897732898     0.328977329     0.452857143       3
     0.897633898     0.338976339     0.452857143       2
     0.907533908     0.339075339     0.452857143       3
     0.907434907     0.349074349     0.452857143       2
     0.917334917     0.349173349     0.452857143       3
     0.917235917     0.359172359     0.452857143       2
     0.927135927     0.359271359     0.452857143       3
     0.927036927     0.369270369     0.452857143       2
     0.936936937     0.369369369     0.452857143       3
     0.936837937     0.379368379     0.452857143       2
     0.946737947     0.379467379     0.452857143       3
     0.946638947     0.389466389     0.452857143       2
     0.956538957     0.389565390     0.452857143       3
     0.956439956     0.399564400     0.452857143       2
     0.966339966     0.399663400     0.452857143       3
     0.966240966     0.409662410     0.452857143       2
     0.976140976     0.409761410     0.452857143       3
     0.976041976     0.419760420     0.452857143       2
     0.985941986     0.419859420     0.452857143       3
     0.985842986     0.429858430     0.452857143       2
     0.995742996     0.429957430     0.452857143       3
     0.995643996     0.439956440     0.452857143       2
     0.005544006     0.440055440     0.452857143       3
     0.005445005     0.450054450     0.452857143       2
     0.015345015     0.450153450     0.452857143       3
     0.015246015     0.460152460     0.452857143       2
     0.025146025     0.460251460     0.452857143       3
     0.025047025     0.470250470     0.452857143       2
     0.034947035     0.470349470     0.452857143       3
     0.034848035     0.480348480     0.452857143       2
     0.044748045     0.480447480     0.452857143       3
     0.044649045     0.490446490     0.452857143       2
     0.054549055     0.490545491     0.452857143       3
     0.054450054     0.500544501     0.452857143       2
     0.064350064     0.500643501     0.452857143       3
     0.064251064     0.510642511     0.452857143       2
     0.074151074     0.510741511     0.452857143       3
     0.074052074     0.520740521     0.452857143       2
     0.083952084     0.520839521     0.452857143       3
     0.083853084     0.530838531     0.452857143       2
     0.093753094     0.530937531     0.452857143       3
     0.093654094     0.540936541     0.452857143       2
     0.103554104     0.541035541     0.452857143       3
     0.103455103     0.551034551     0.452857143       2
     0.113355113     0.551133551     0.452857143       3
     0.113256113     0.561132561     0.452857143       2
     0.123156123     0.561231561     0.452857143       3
     0.123057123     0.571230571     0.452857143       2
     0.132957133     0.571329571     0.452857143       3
     0.132858133     0.581328581     0.452857143       2
     0.142758143     0.581427581     0.452857143       3
     0.142659143     0.591426591     0.452857143       2
     0.152559153     0.591525592     0.452857143       3
     0.152460152     0.601524602     0.452857143       2
     0.162360162     0.601623602     0.452857143       3
     0.162261162     0.611622612     0.452857143       2
     0.172161172     0.611721612     0.452857143       3
     0.172062172     0.621720622     0.452857143       2
     0.181962182     0.621819622     0.452857143       3
     0.181863182     0.631818632     0.452857143       2
     0.191763192     0.631917632     0.452857143       3
     0.191664192     0.641916642     0.452857143       2
     0.201564202     0.642015642     0.452857143       3
     0.201465201     0.652014652     0.452857143       2
     0.211365211     0.652113652     0.452857143       3
     0.211266211     0.662112662     0.452857143       2
     0.221166221     0.662211662     0.452857143       3
     0.221067221     0.672210672     0.452857143       2
     0.230967231     0.672309672     0.452857143       3
     0.230868231     0.682308682     0.452857143       2
     0.240768241     0.682407682     0.452857143       3
     0.240669241     0.692406692     0.452857143       2
     0.250569251     0.692505693     0.452857143       3
     0.250470250     0.702504703     0.452857143       2
     0.260370260     0.702603703     0.452857143       3
     0.260271260     0.712602713     0.452857143       2
     0.270171270     0.712701713     0.452857143       3
     0.270072270     0.722700723     0.452857143       2
     0.279972280     0.722799723     0.452857143       3
     0.279873280     0.732798733     0.452857143       2
     0.289773290     0.732897733     0.452857143       3
     0.289674290     0.742896743     0.452857143       2
     0.299574300     0.742995743     0.452857143       3
     0.299475299     0.752994753     0.452857143       2
     0.309375309     0.753093753     0.452857143       3
     0.309276309     0.763092763     0.452857143       2
     0.319176319     0.763191763     0.452857143       3
     0.319077319     0.773190773     0.452857143       2
     0.328977329     0.773289773     0.452857143       3
     0.328878329     0.783288783     0.452857143       2
     0.338778339     0.783387783     0.452857143       3
     0.338679339     0.793386793     0.452857143       2
     0.348579349     0.793485793     0.452857143       3
     0.348480348     0.803484803     0.452857143       2
     0.358380358     0.803583804     0.452857143       3
     0.358281358     0.813582814     0.452857143       2
     0.368181368     0.813681814     0.452857143       3
     0.368082368     0.823680824     0.452857143       2
     0.377982378     0.823779824     0.452857143       3
     0.377883378     0.833778834     0.452857143       2
     0.387783388     0.833877834     0.452857143       3
     0.387684388     0.843876844     0.452857143       2
     0.397584398     0.843975844     0.452857143       3
     0.397485397     0.853974854     0.452857143       2
     0.407385407     0.854073854     0.452857143       3
     0.407286407     0.864072864     0.452857143       2
     0.417186417     0.864171864     0.452857143       3
     0.417087417     0.874170874     0.452857143       2
     0.426987427     0.874269874     0.452857143       3
     0.426888427     0.884268884     0.452857143       2
     0.436788437     0.884367884     0.452857143       3
     0.436689437     0.894366894     0.452857143       2
     0.446589447     0.894465894     0.452857143       3
     0.446490446     0.904464904     0.452857143       2
     0.456390456     0.904563905     0.452857143       3
     0.456291456     0.914562915     0.452857143       2
     0.466191466     0.914661915     0.452857143       3
     0.466092466     0.924660925     0.452857143       2
     0.475992476     0.924759925     0.452857143       3
     0.475893476     0.934758935     0.452857143       2
     0.485793486     0.934857935     0.452857143       3
     0.485694486     0.944856945     0.452857143       2
     0.495594496     0.944955945     0.452857143       3
     0.495495495     0.954954955     0.452857143       2
     0.505395505     0.955053955     0.452857143       3
     0.505296505     0.965052965     0.452857143       2
     0.515196515     0.965151965     0.452857143       3
     0.515097515     0.975150975     0.452857143       2
     0.524997525     0.975249975     0.452857143       3
     0.524898525     0.985248985     0.452857143       2
     0.534798535     0.985347985     0.452857143       3
     0.534699535     0.995346995     0.452857143       2
     0.544599545     0.995445995     0.452857143       3
     0.544500545     0.005445005     0.452857143       2
     0.554400554     0.005544006     0.452857143       3
     0.554301554     0.015543016     0.452857143       2
     0.564201564     0.015642016     0.452857143       3
     0.564102564     0.025641026     0.452857143       2
     0.574002574     0.025740026     0.452857143       3
     0.573903574     0.035739036     0.452857143       2
     0.583803584     0.035838036     0.452857143       3
     0.583704584     0.045837046     0.452857143       2
     0.593604594     0.045936046     0.452857143       3
     0.593505594     0.055935056     0.452857143       2
     0.603405603     0.056034056     0.452857143       3
     0.603306603     0.066033066     0.452857143       2
     0.613206613     0.066132066     0.452857143       3
     0.613107613     0.076131076     0.452857143       2
     0.623007623     0.076230076     0.452857143       3
     0.622908623     0.086229086     0.452857143       2
     0.632808633     0.086328086     0.452857143       3
     0.632709633     0.096327096     0.452857143       2
     0.642609643     0.096426096     0.452857143       3
     0.642510643     0.106425106     0.452857143       2
     0.652410652     0.106524107     0.452857143       3
     0.652311652     0.116523117     0.452857143       2
     0.662211662     0.116622117     0.452857143       3
     0.662112662     0.126621127     0.452857143       2
     0.672012672     0.126720127     0.452857143       3
     0.671913672     0.136719137     0.452857143       2
     0.681813682     0.136818137     0.452857143       3
     0.681714682     0.146817147     0.452857143       2
     0.691614692     0.146916147     0.452857143       3
     0.691515692     0.156915157     0.452857143       2
     0.701415701     0.157014157     0.452857143       3
     0.701316701     0.167013167     0.452857143       2
     0.711216711     0.167112167     0.452857143       3
     0.711117711     0.177111177     0.452857143       2
     0.721017721     0.177210177     0.452857143       3
     0.720918721     0.187209187     0.452857143       2
     0.730818731     0.187308187     0.452857143       3
     0.730719731     0.197307197     0.452857143       2
     0.740619741     0.197406197     0.452857143       3
     0.740520741     0.207405207     0.452857143       2
     0.750420750     0.207504208     0.452857143       3
     0.750321750     0.217503218     0.452857143       2
     0.760221760     0.217602218     0.452857143       3
     0.760122760     0.227601228     0.452857143       2
     0.770022770     0.227700228     0.452857143       3
     0.769923770     0.237699238     0.452857143       2
     0.779823780     0.237798238     0.452857143       3
     0.779724780     0.247797248     0.452857143       2
     0.789624790     0.247896248     0.452857143       3
     0.789525790     0.257895258     0.452857143       2
     0.799425799     0.257994258     0.452857143       3
     0.799326799     0.267993268     0.452857143       2
     0.809226809     0.268092268     0.452857143       3
     0.809127809     0.278091278     0.452857143       2
     0.819027819     0.278190278     0.452857143       3
     0.818928819     0.288189288     0.452857143       2
     0.828828829     0.288288288     0.452857143       3
     0.828729829     0.298287298     0.452857143       2
     0.838629839     0.298386298     0.452857143       3
     0.838530839     0.308385308     0.452857143       2
     0.848430848     0.308484308     0.452857143       3
     0.848331848     0.318483318     0.452857143       2
     0.858231858     0.318582319     0.452857143       3
     0.858132858     0.328581329     0.452857143       2
     0.868032868     0.328680329     0.452857143       3
     0.867933868     0.338679339     0.452857143       2
     0.877833878     0.338778339     0.452857143       3
     0.877734878     0.348777349     0.452857143       2
     0.887634888     0.348876349     0.452857143       3
     0.887535888     0.358875359     0.452857143       2
     0.897435897     0.358974359     0.452857143       3
     0.897336897     0.368973369     0.452857143       2
     0.907236907     0.369072369     0.452857143       3
     0.907137907     0.379071379     0.452857143       2
     0.917037917     0.379170379     0.452857143       3
     0.916938917     0.389169389     0.452857143       2
     0.926838927     0.389268389     0.452857143       3
     0.926739927     0.399267399     0.452857143       2
     0.936639937     0.399366399     0.452857143       3
     0.936540937     0.409365409     0.452857143       2
     0.946440946     0.409464409     0.452857143       3
     0.946341946     0.419463419     0.452857143       2
     0.956241956     0.419562420     0.452857143       3
     0.956142956     0.429561430     0.452857143       2
     0.966042966     0.429660430     0.452857143       3
     0.965943966     0.439659440     0.452857143       2
     0.975843976     0.439758440     0.452857143       3
     0.975744976     0.449757450     0.452857143       2
     0.985644986     0.449856450     0.452857143       3
     0.985545986     0.459855460     0.452857143       2
     0.995445995     0.459954460     0.452857143       3
     0.995346995     0.469953470     0.452857143       2
     0.005247005     0.470052470     0.452857143       3
     0.005148005     0.480051480     0.452857143       2
     0.015048015     0.480150480     0.452857143       3
     0.014949015     0.490149490     0.452857143       2
     0.024849025     0.490248490     0.452857143       3
     0.024750025     0.500247500     0.452857143       2
     0.034650035     0.500346500     0.452857143       3
     0.034551035     0.510345510     0.452857143       2
     0.044451044     0.510444510     0.452857143       3
     0.044352044     0.520443520     0.452857143       2
     0.054252054     0.520542521     0.452857143       3
     0.054153054     0.530541531     0.452857143       2
     0.064053064     0.530640531     0.452857143       3
     0.063954064     0.540639541     0.452857143       2
     0.073854074     0.540738541     0.452857143       3
     0.073755074     0.550737551     0.452857143       2
     0.083655084     0.550836551     0.452857143       3
     0.083556084     0.560835561     0.452857143       2
     0.093456093     0.560934561     0.452857143       3
     0.093357093     0.570933571     0.452857143       2
     0.103257103     0.571032571     0.452857143       3
     0.103158103     0.581031581     0.452857143       2
     0.113058113     0.581130581     0.452857143       3
     0.112959113     0.591129591     0.452857143       2
     0.122859123     0.591228591     0.452857143       3
     0.122760123     0.601227601     0.452857143       2
     0.132660133     0.601326601     0.452857143       3
     0.132561133     0.611325611     0.452857143       2
     0.142461142     0.611424611     0.452857143       3
     0.142362142     0.621423621     0.452857143       2
     0.152262152     0.621522622     0.452857143       3
     0.152163152     0.631521632     0.452857143       2
     0.162063162     0.631620632     0.452857143       3
     0.161964162     0.641619642     0.452857143       2
     0.171864172     0.641718642     0.452857143       3
     0.171765172     0.651717652     0.452857143       2
     0.181665182     0.651816652     0.452857143       3
     0.181566182     0.661815662     0.452857143       2
     0.191466191     0.661914662     0.452857143       3
     0.191367191     0.671913672     0.452857143       2
     0.201267201     0.672012672     0.452857143       3
     0.201168201     0.682011682     0.452857143       2
     0.211068211     0.682110682     0.452857143       3
     0.210969211     0.692109692     0.452857143       2
     0.220869221     0.692208692     0.452857143       3
     0.220770221     0.702207702     0.452857143       2
     0.230670231     0.702306702     0.452857143       3
     0.230571231     0.712305712     0.452857143       2
     0.240471240     0.712404712     0.452857143       3
     0.240372240     0.722403722     0.452857143       2
     0.250272250     0.722502723     0.452857143       3
     0.250173250     0.732501733     0.452857143       2
     0.260073260     0.732600733     0.452857143       3
     0.259974260     0.742599743     0.452857143       2
     0.269874270     0.742698743     0.452857143       3
     0.269775270     0.752697753     0.452857143       2
     0.279675280     0.752796753     0.452857143       3
     0.279576280     0.762795763     0.452857143       2
     0.289476289     0.762894763     0.452857143       3
     0.289377289     0.772893773     0.452857143       2
     0.299277299     0.772992773     0.452857143       3
     0.299178299     0.782991783     0.452857143       2
     0.309078309     0.783090783     0.452857143       3
     0.308979309     0.793089793     0.452857143       2
     0.318879319     0.793188793     0.452857143       3
     0.318780319     0.803187803     0.452857143       2
     0.328680329     0.803286803     0.452857143       3
     0.328581329     0.813285813     0.452857143       2
     0.338481338     0.813384813     0.452857143       3
     0.338382338     0.823383823     0.452857143       2
     0.348282348     0.823482823     0.452857143       3
     0.348183348     0.833481833     0.452857143       2
     0.358083358     0.833580834     0.452857143       3
     0.357984358     0.843579844     0.452857143       2
     0.367884368     0.843678844     0.452857143       3
     0.367785368     0.853677854     0.452857143       2
     0.377685378     0.853776854     0.452857143       3
     0.377586378     0.863775864     0.452857143       2
     0.387486387     0.863874864     0.452857143       3
     0.387387387     0.873873874     0.452857143       2
     0.397287397     0.873972874     0.452857143       3
     0.397188397     0.883971884     0.452857143       2
     0.407088407     0.884070884     0.452857143       3
     0.406989407     0.894069894     0.452857143       2
     0.416889417     0.894168894     0.452857143       3
     0.416790417     0.904167904     0.452857143       2
     0.426690427     0.904266904     0.452857143       3
     0.426591427     0.914265914     0.452857143       2
     0.436491436     0.914364914     0.452857143       3
     0.436392436     0.924363924     0.452857143       2
     0.446292446     0.924462924     0.452857143       3
     0.446193446     0.934461934     0.452857143       2
     0.456093456     0.934560935     0.452857143       3
     0.455994456     0.944559945     0.452857143       2
     0.465894466     0.944658945     0.452857143       3
     0.465795466     0.954657955     0.452857143       2
     0.475695476     0.954756955     0.452857143       3
     0.475596476     0.964755965     0.452857143       2
     0.485496485     0.964854965     0.452857143       3
     0.485397485     0.974853975     0.452857143       2
     0.495297495     0.974952975     0.452857143       3
     0.495198495     0.984951985     0.452857143       2
     0.505098505     0.985050985     0.452857143       3
     0.504999505     0.995049995     0.452857143       2
     0.514899515     0.995148995     0.452857143       3
     0.514800515     0.005148005     0.452857143       2
     0.524700525     0.005247005     0.452857143       3
     0.524601525     0.015246015     0.452857143       2
     0.534501535     0.015345015     0.452857143       3
     0.534402534     0.025344025     0.452857143       2
     0.544302544     0.025443025     0.452857143       3
     0.544203544     0.035442035     0.452857143       2
     0.554103554     0.035541036     0.452857143       3
     0.554004554     0.045540046     0.452857143       2
     0.563904564     0.045639046     0.452857143       3
     0.563805564     0.055638056     0.452857143       2
     0.573705574     0.055737056     0.452857143       3
     0.573606574     0.065736066     0.452857143       2
     0.583506584     0.065835066     0.452857143       3
     0.583407583     0.075834076     0.452857143       2
     0.593307593     0.075933076     0.452857143       3
     0.593208593     0.085932086     0.452857143       2
     0.603108603     0.086031086     0.452857143       3
     0.603009603     0.096030096     0.452857143       2
     0.612909613     0.096129096     0.452857143       3
     0.612810613     0.106128106     0.452857143       2
     0.622710623     0.106227106     0.452857143       3
     0.622611623     0.116226116     0.452857143       2
     0.632511633     0.116325116     0.452857143       3
     0.632412632     0.126324126     0.452857143       2
     0.642312642     0.126423126     0.452857143       3
     0.642213642     0.136422136     0.452857143       2
     0.652113652     0.136521137     0.452857143       3
     0.652014652     0.146520147     0.452857143       2
     0.661914662     0.146619147     0.452857143       3
     0.661815662     0.156618157     0.452857143       2
     0.671715672     0.156717157     0.452857143       3
     0.671616672     0.166716167     0.452857143       2
     0.681516682     0.166815167     0.452857143       3
     0.681417681     0.176814177     0.452857143       2
     0.691317691     0.176913177     0.452857143       3
     0.691218691     0.186912187     0.452857143       2
     0.701118701     0.187011187     0.452857143       3
     0.701019701     0.197010197     0.452857143       2
     0.710919711     0.197109197     0.452857143       3
     0.710820711     0.207108207     0.452857143       2
     0.720720721     0.207207207     0.452857143       3
     0.720621721     0.217206217     0.452857143       2
     0.730521731     0.217305217     0.452857143       3
     0.730422730     0.227304227     0.452857143       2
     0.740322740     0.227403227     0.452857143       3
     0.740223740     0.237402237     0.452857143       2
     0.750123750     0.237501238     0.452857143       3
     0.750024750     0.247500248     0.452857143       2
     0.759924760     0.247599248     0.452857143       3
     0.759825760     0.257598258     0.452857143       2
     0.769725770     0.257697258     0.452857143       3
     0.769626770     0.267696268     0.452857143       2
     0.779526780     0.267795268     0.452857143       3
     0.779427779     0.277794278     0.452857143       2
     0.789327789     0.277893278     0.452857143       3
     0.789228789     0.287892288     0.452857143       2
     0.799128799     0.287991288     0.452857143       3
     0.799029799     0.297990298     0.452857143       2
     0.808929809     0.298089298     0.452857143       3
     0.808830809     0.308088308     0.452857143       2
     0.818730819     0.308187308     0.452857143       3
     0.818631819     0.318186318     0.452857143       2
     0.828531829     0.318285318     0.452857143       3
     0.828432828     0.328284328     0.452857143       2
     0.838332838     0.328383328     0.452857143       3
     0.838233838     0.338382338     0.452857143       2
     0.848133848     0.338481338     0.452857143       3
     0.848034848     0.348480348     0.452857143       2
     0.857934858     0.348579349     0.452857143       3
     0.857835858     0.358578359     0.452857143       2
     0.867735868     0.358677359     0.452857143       3
     0.867636868     0.368676369     0.452857143       2
     0.877536878     0.368775369     0.452857143       3
     0.877437877     0.378774379     0.452857143       2
     0.887337887     0.378873379     0.452857143       3
     0.887238887     0.388872389     0.452857143       2
     0.897138897     0.388971389     0.452857143       3
     0.897039897     0.398970399     0.452857143       2
     0.906939907     0.399069399     0.452857143       3
     0.906840907     0.409068409     0.452857143       2
     0.916740917     0.409167409     0.452857143       3
     0.916641917     0.419166419     0.452857143       2
     0.926541927     0.419265419     0.452857143       3
     0.926442926     0.429264429     0.452857143       2
     0.936342936     0.429363429     0.452857143       3
     0.936243936     0.439362439     0.452857143       2
     0.946143946     0.439461439     0.452857143       3
     0.946044946     0.449460449     0.452857143       2
     0.955944956     0.449559450     0.452857143       3
     0.955845956     0.459558460     0.452857143       2
     0.965745966     0.459657460     0.452857143       3
     0.965646966     0.469656470     0.452857143       2
     0.975546976     0.469755470     0.452857143       3
     0.975447975     0.479754480     0.452857143       2
     0.985347985     0.479853480     0.452857143       3
     0.985248985     0.489852490     0.452857143       2
     0.995148995     0.489951490     0.452857143       3
     0.995049995     0.499950500     0.452857143       2
     0.004950005     0.500049500     0.452857143       3
     0.004851005     0.510048510     0.452857143       2
     0.014751015     0.510147510     0.452857143       3
     0.014652015     0.520146520     0.452857143       2
     0.024552025     0.520245520     0.452857143       3
     0.024453024     0.530244530     0.452857143       2
     0.034353034     0.530343530     0.452857143       3
     0.034254034     0.540342540     0.452857143       2
     0.044154044     0.540441540     0.452857143       3
     0.044055044     0.550440550     0.452857143       2
     0.053955054     0.550539551     0.452857143       3
     0.053856054     0.560538561     0.452857143       2
     0.063756064     0.560637561     0.452857143       3
     0.063657064     0.570636571     0.452857143       2
     0.073557074     0.570735571     0.452857143       3
     0.073458073     0.580734581     0.452857143       2
     0.083358083     0.580833581     0.452857143       3
     0.083259083     0.590832591     0.452857143       2
     0.093159093     0.590931591     0.452857143       3
     0.093060093     0.600930601     0.452857143       2
     0.102960103     0.601029601     0.452857143       3
     0.102861103     0.611028611     0.452857143       2
     0.112761113     0.611127611     0.452857143       3
     0.112662113     0.621126621     0.452857143       2
     0.122562123     0.621225621     0.452857143       3
     0.122463122     0.631224631     0.452857143       2
     0.132363132     0.631323631     0.452857143       3
     0.132264132     0.641322641     0.452857143       2
     0.142164142     0.641421641     0.452857143       3
     0.142065142     0.651420651     0.452857143       2
     0.151965152     0.651519652     0.452857143       3
     0.151866152     0.661518662     0.452857143       2
     0.161766162     0.661617662     0.452857143       3
     0.161667162     0.671616672     0.452857143       2
     0.171567172     0.671715672     0.452857143       3
     0.171468171     0.681714682     0.452857143       2
     0.181368181     0.681813682     0.452857143       3
     0.181269181     0.691812692     0.452857143       2
     0.191169191     0.691911692     0.452857143       3
     0.191070191     0.701910702     0.452857143       2
     0.200970201     0.702009702     0.452857143       3
     0.200871201     0.712008712     0.452857143       2
     0.210771211     0.712107712     0.452857143       3
     0.210672211     0.722106722     0.452857143       2
     0.220572221     0.722205722     0.452857143       3
     0.220473220     0.732204732     0.452857143       2
     0.230373230     0.732303732     0.452857143       3
     0.230274230     0.742302742     0.452857143       2
     0.240174240     0.742401742     0.452857143       3
     0.240075240     0.752400752     0.452857143       2
     0.249975250     0.752499752     0.452857143       3
     0.249876250     0.762498762     0.452857143       2
     0.259776260     0.762597763     0.452857143       3
     0.259677260     0.772596773     0.452857143       2
     0.269577270     0.772695773     0.452857143       3
     0.269478269     0.782694783     0.452857143       2
     0.279378279     0.782793783     0.452857143       3
     0.279279279     0.792792793     0.452857143       2
     0.289179289     0.792891793     0.452857143       3
     0.289080289     0.802890803     0.452857143       2
     0.298980299     0.802989803     0.452857143       3
     0.298881299     0.812988813     0.452857143       2
     0.308781309     0.813087813     0.452857143       3
     0.308682309     0.823086823     0.452857143       2
     0.318582319     0.823185823     0.452857143       3
     0.318483318     0.833184833     0.452857143       2
     0.328383328     0.833283833     0.452857143       3
     0.328284328     0.843282843     0.452857143       2
     0.338184338     0.843381843     0.452857143       3
     0.338085338     0.853380853     0.452857143       2
     0.347985348     0.853479853     0.452857143       3
     0.347886348     0.863478863     0.452857143       2
     0.357786358     0.863577864     0.452857143       3
     0.357687358     0.873576874     0.452857143       2
     0.367587368     0.873675874     0.452857143       3
     0.367488367     0.883674884     0.452857143       2
     0.377388377     0.883773884     0.452857143       3
     0.377289377     0.893772894     0.452857143       2
     0.387189387     0.893871894     0.452857143       3
     0.387090387     0.903870904     0.452857143       2
     0.396990397     0.903969904     0.452857143       3
     0.396891397     0.913968914     0.452857143       2
     0.406791407     0.914067914     0.452857143       3
     0.406692407     0.924066924     0.452857143       2
     0.416592417     0.924165924     0.452857143       3
     0.416493416     0.934164934     0.452857143       2
     0.426393426     0.934263934     0.452857143       3
     0.426294426     0.944262944     0.452857143       2
     0.436194436     0.944361944     0.452857143       3
     0.436095436     0.954360954     0.452857143       2
     0.445995446     0.954459954     0.452857143       3
     0.445896446     0.964458964     0.452857143       2
     0.455796456     0.964557965     0.452857143       3
     0.455697456     0.974556975     0.452857143       2
     0.465597466     0.974655975     0.452857143       3
     0.465498465     0.984654985     0.452857143       2
     0.475398475     0.984753985     0.452857143       3
     0.475299475     0.994752995     0.452857143       2
     0.485199485     0.994851995     0.452857143       3
     0.485100485     0.004851005     0.452857143       2
     0.495000495     0.004950005     0.452857143       3
     0.494901495     0.014949015     0.452857143       2
     0.504801505     0.015048015     0.452857143       3
     0.504702505     0.025047025     0.452857143       2
     0.514602515     0.025146025     0.452857143       3
     0.514503515     0.035145035     0.452857143       2
     0.524403524     0.035244035     0.452857143       3
     0.524304524     0.045243045     0.452857143       2
     0.534204534     0.045342045     0.452857143       3
     0.534105534     0.055341055     0.452857143       2
     0.544005544     0.055440055     0.452857143       3
     0.543906544     0.065439065     0.452857143       2
     0.553806554     0.065538066     0.452857143       3
     0.553707554     0.075537076     0.452857143       2
     0.563607564     0.075636076     0.452857143       3
     0.563508564     0.085635086     0.452857143       2
     0.573408573     0.085734086     0.452857143       3
     0.573309573     0.095733096     0.452857143       2
     0.583209583     0.095832096     0.452857143       3
     0.583110583     0.105831106     0.452857143       2
     0.593010593     0.105930106     0.452857143       3
     0.592911593     0.115929116     0.452857143       2
     0.602811603     0.116028116     0.452857143       3
     0.602712603     0.126027126     0.452857143       2
     0.612612613     0.126126126     0.452857143       3
     0.612513613     0.136125136     0.452857143       2
     0.622413622     0.136224136     0.452857143       3
     0.622314622     0.146223146     0.452857143       2
     0.632214632     0.146322146     0.452857143       3
     0.632115632     0.156321156     0.452857143       2
     0.642015642     0.156420156     0.452857143       3
     0.641916642     0.166419166     0.452857143       2
     0.651816652     0.166518167     0.452857143       3
     0.651717652     0.176517177     0.452857143       2
     0.661617662     0.176616177     0.452857143       3
     0.661518662     0.186615187     0.452857143       2
     0.671418671     0.186714187     0.452857143       3
     0.671319671     0.196713197     0.452857143       2
     0.681219681     0.196812197     0.452857143       3
     0.681120681     0.206811207     0.452857143       2
     0.691020691     0.206910207     0.452857143       3
     0.690921691     0.216909217     0.452857143       2
     0.700821701     0.217008217     0.452857143       3
     0.700722701     0.227007227     0.452857143       2
     0.710622711     0.227106227     0.452857143       3
     0.710523711     0.237105237     0.452857143       2
     0.720423720     0.237204237     0.452857143       3
     0.720324720     0.247203247     0.452857143       2
     0.730224730     0.247302247     0.452857143       3
     0.730125730     0.257301257     0.452857143       2
     0.740025740     0.257400257     0.452857143       3
     0.739926740     0.267399267     0.452857143       2
     0.749826750     0.267498267     0.452857143       3
     0.749727750     0.277497277     0.452857143       2
     0.759627760     0.277596278     0.452857143       3
     0.759528760     0.287595288     0.452857143       2
     0.769428769     0.287694288     0.452857143       3
     0.769329769     0.297693298     0.452857143       2
     0.779229779     0.297792298     0.452857143       3
     0.779130779     0.307791308     0.452857143       2
     0.789030789     0.307890308     0.452857143       3
     0.788931789     0.317889318     0.452857143       2
     0.798831799     0.317988318     0.452857143       3
     0.798732799     0.327987328     0.452857143       2
     0.808632809     0.328086328     0.452857143       3
     0.808533809     0.338085338     0.452857143       2
     0.818433818     0.338184338     0.452857143       3
     0.818334818     0.348183348     0.452857143       2
     0.828234828     0.348282348     0.452857143       3
     0.828135828     0.358281358     0.452857143       2
     0.838035838     0.358380358     0.452857143       3
     0.837936838     0.368379368     0.452857143       2
     0.847836848     0.368478368     0.452857143       3
     0.847737848     0.378477378     0.452857143       2
     0.857637858     0.378576379     0.452857143       3
     0.857538858     0.388575389     0.452857143       2
     0.867438867     0.388674389     0.452857143       3
     0.867339867     0.398673399     0.452857143       2
     0.877239877     0.398772399     0.452857143       3
     0.877140877     0.408771409     0.452857143       2
     0.887040887     0.408870409     0.452857143       3
     0.886941887     0.418869419     0.452857143       2
     0.896841897     0.418968419     0.452857143       3
     0.896742897     0.428967429     0.452857143       2
     0.906642907     0.429066429     0.452857143       3
     0.906543907     0.439065439     0.452857143       2
     0.916443916     0.439164439     0.452857143       3
     0.916344916     0.449163449     0.452857143       2
     0.926244926     0.449262449     0.452857143       3
     0.926145926     0.459261459     0.452857143       2
     0.936045936     0.459360459     0.452857143       3
     0.935946936     0.469359469     0.452857143       2
     0.945846946     0.469458469     0.452857143       3
     0.945747946     0.479457479     0.452857143       2
     0.955647956     0.479556480     0.452857143       3
     0.955548956     0.489555490     0.452857143       2
     0.965448965     0.489654490     0.452857143       3
     0.965349965     0.499653500     0.452857143       2
     0.975249975     0.499752500     0.452857143       3
     0.975150975     0.509751510     0.452857143       2
     0.985050985     0.509850510     0.452857143       3
     0.984951985     0.519849520     0.452857143       2
     0.994851995     0.519948520     0.452857143       3
     0.994752995     0.529947530     0.452857143       2
     0.004653005     0.530046530     0.452857143       3
     0.004554005     0.540045540     0.452857143       2
     0.014454014     0.540144540     0.452857143       3
     0.014355014     0.550143550     0.452857143       2
     0.024255024     0.550242550     0.452857143       3
     0.024156024     0.560241560     0.452857143       2
     0.034056034     0.560340560     0.452857143       3
     0.033957034     0.570339570     0.452857143       2
     0.043857044     0.570438570     0.452857143       3
     0.043758044     0.580437580     0.452857143       2
     0.053658054     0.580536581     0.452857143       3
     0.053559054     0.590535591     0.452857143       2
     0.063459063     0.590634591     0.452857143       3
     0.063360063     0.600633601     0.452857143       2
     0.073260073     0.600732601     0.452857143       3
     0.073161073     0.610731611     0.452857143       2
     0.083061083     0.610830611     0.452857143       3
     0.082962083     0.620829621     0.452857143       2
     0.092862093     0.620928621     0.452857143       3
     0.092763093     0.630927631     0.452857143       2
     0.102663103     0.631026631     0.452857143       3
     0.102564103     0.641025641     0.452857143       2
     0.112464112     0.641124641     0.452857143       3
     0.112365112     0.651123651     0.452857143       2
     0.122265122     0.651222651     0.452857143       3
     0.122166122     0.661221661     0.452857143       2
     0.132066132     0.661320661     0.452857143       3
     0.131967132     0.671319671     0.452857143       2
     0.141867142     0.671418671     0.452857143       3
     0.141768142     0.681417681     0.452857143       2
     0.151668152     0.681516682     0.452857143       3
     0.151569152     0.691515692     0.452857143       2
     0.161469161     0.691614692     0.452857143       3
     0.161370161     0.701613702     0.452857143       2
     0.171270171     0.701712702     0.452857143       3
     0.171171171     0.711711712     0.452857143       2
     0.181071181     0.711810712     0.452857143       3
     0.180972181     0.721809722     0.452857143       2
     0.190872191     0.721908722     0.452857143       3
     0.190773191     0.731907732     0.452857143       2
     0.200673201     0.732006732     0.452857143       3
     0.200574201     0.742005742     0.452857143       2
     0.210474210     0.742104742     0.452857143       3
     0.210375210     0.752103752     0.452857143       2
     0.220275220     0.752202752     0.452857143       3
     0.220176220     0.762201762     0.452857143       2
     0.230076230     0.762300762     0.452857143       3
     0.229977230     0.772299772     0.452857143       2
     0.239877240     0.772398772     0.452857143       3
     0.239778240     0.782397782     0.452857143       2
     0.249678250     0.782496782     0.452857143       3
     0.249579250     0.792495792     0.452857143       2
     0.259479259     0.792594793     0.452857143       3
     0.259380259     0.802593803     0.452857143       2
     0.269280269     0.802692803     0.452857143       3
     0.269181269     0.812691813     0.452857143       2
     0.279081279     0.812790813     0.452857143       3
     0.278982279     0.822789823     0.452857143       2
     0.288882289     0.822888823     0.452857143       3
     0.288783289     0.832887833     0.452857143       2
     0.298683299     0.832986833     0.452857143       3
     0.298584299     0.842985843     0.452857143       2
     0.308484308     0.843084843     0.452857143       3
     0.308385308     0.853083853     0.452857143       2
     0.318285318     0.853182853     0.452857143       3
     0.318186318     0.863181863     0.452857143       2
     0.328086328     0.863280863     0.452857143       3
     0.327987328     0.873279873     0.452857143       2
     0.337887338     0.873378873     0.452857143       3
     0.337788338     0.883377883     0.452857143       2
     0.347688348     0.883476883     0.452857143       3
     0.347589348     0.893475893     0.452857143       2
     0.357489357     0.893574894     0.452857143       3
     0.357390357     0.903573904     0.452857143       2
     0.367290367     0.903672904     0.452857143       3
     0.367191367     0.913671914     0.452857143       2
     0.377091377     0.913770914     0.452857143       3
     0.376992377     0.923769924     0.452857143       2
     0.386892387     0.923868924     0.452857143       3
     0.386793387     0.933867934     0.452857143       2
     0.396693397     0.933966934     0.452857143       3
     0.396594397     0.943965944     0.452857143       2
     0.406494406     0.944064944     0.452857143       3
     0.406395406     0.954063954     0.452857143       2
     0.416295416     0.954162954     0.452857143       3
     0.416196416     0.964161964     0.452857143       2
     0.426096426     0.964260964     0.452857143       3
     0.425997426     0.974259974     0.452857143       2
     0.435897436     0.974358974     0.452857143       3
     0.435798436     0.984357984     0.452857143       2
     0.445698446     0.984456984     0.452857143       3
     0.445599446     0.994455994     0.452857143       2
     0.455499455     0.994554995     0.452857143       3
     0.455400455     0.004554005     0.452857143       2
     0.465300465     0.004653005     0.452857143       3
     0.465201465     0.014652015     0.452857143       2
     0.475101475     0.014751015     0.452857143       3
     0.475002475     0.024750025     0.452857143       2
     0.484902485     0.024849025     0.452857143       3
     0.484803485     0.034848035     0.452857143       2
     0.494703495     0.034947035     0.452857143       3
     0.494604495     0.044946045     0.452857143       2
     0.504504505     0.045045045     0.452857143       3
     0.504405504     0.055044055     0.452857143       2
     0.514305514     0.055143055     0.452857143       3
     0.514206514     0.065142065     0.452857143       2
     0.524106524     0.065241065     0.452857143       3
     0.524007524     0.075240075     0.452857143       2
     0.533907534     0.075339075     0.452857143       3
     0.533808534     0.085338085     0.452857143       2
     0.543708544     0.085437085     0.452857143       3
     0.543609544     0.095436095     0.452857143       2
     0.553509554     0.095535096     0.452857143       3
     0.553410553     0.105534106     0.452857143       2
     0.563310563     0.105633106     0.452857143       3
     0.563211563     0.115632116     0.452857143       2
     0.573111573     0.115731116     0.452857143       3
     0.573012573     0.125730126     0.452857143       2
     0.582912583     0.125829126     0.452857143       3
     0.582813583     0.135828136     0.452857143       2
     0.592713593     0.135927136     0.452857143       3
     0.592614593     0.145926146     0.452857143       2
     0.602514603     0.146025146     0.452857143       3
     0.602415602     0.156024156     0.452857143       2
     0.612315612     0.156123156     0.452857143       3
     0.612216612     0.166122166     0.452857143       2
     0.622116622     0.166221166     0.452857143       3
     0.622017622     0.176220176     0.452857143       2
     0.631917632     0.176319176     0.452857143       3
     0.631818632     0.186318186     0.452857143       2
     0.641718642     0.186417186     0.452857143       3
     0.641619642     0.196416196     0.452857143       2
     0.651519652     0.196515197     0.452857143       3
     0.651420651     0.206514207     0.452857143       2
     0.661320661     0.206613207     0.452857143       3
     0.661221661     0.216612217     0.452857143       2
     0.671121671     0.216711217     0.452857143       3
     0.671022671     0.226710227     0.452857143       2
     0.680922681     0.226809227     0.452857143       3
     0.680823681     0.236808237     0.452857143       2
     0.690723691     0.236907237     0.452857143       3
     0.690624691     0.246906247     0.452857143       2
     0.700524701     0.247005247     0.452857143       3
     0.700425700     0.257004257     0.452857143       2
     0.710325710     0.257103257     0.452857143       3
     0.710226710     0.267102267     0.452857143       2
     0.720126720     0.267201267     0.452857143       3
     0.720027720     0.277200277     0.452857143       2
     0.729927730     0.277299277     0.452857143       3
     0.729828730     0.287298287     0.452857143       2
     0.739728740     0.287397287     0.452857143       3
     0.739629740     0.297396297     0.452857143       2
     0.749529750     0.297495297     0.452857143       3
     0.749430749     0.307494307     0.452857143       2
     0.759330759     0.307593308     0.452857143       3
     0.759231759     0.317592318     0.452857143       2
     0.769131769     0.317691318     0.452857143       3
     0.769032769     0.327690328     0.452857143       2
     0.778932779     0.327789328     0.452857143       3
     0.778833779     0.337788338     0.452857143       2
     0.788733789     0.337887338     0.452857143       3
     0.788634789     0.347886348     0.452857143       2
     0.798534799     0.347985348     0.452857143       3
     0.798435798     0.357984358     0.452857143       2
     0.808335808     0.358083358     0.452857143       3
     0.808236808     0.368082368     0.452857143       2
     0.818136818     0.368181368     0.452857143       3
     0.818037818     0.378180378     0.452857143       2
     0.827937828     0.378279378     0.452857143       3
     0.827838828     0.388278388     0.452857143       2
     0.837738838     0.388377388     0.452857143       3
     0.837639838     0.398376398     0.452857143       2
     0.847539848     0.398475398     0.452857143       3
     0.847440847     0.408474408     0.452857143       2
     0.857340857     0.408573409     0.452857143       3
     0.857241857     0.418572419     0.452857143       2
     0.867141867     0.418671419     0.452857143       3
     0.867042867     0.428670429     0.452857143       2
     0.876942877     0.428769429     0.452857143       3
     0.876843877     0.438768439     0.452857143       2
     0.886743887     0.438867439     0.452857143       3
     0.886644887     0.448866449     0.452857143       2
     0.896544897     0.448965449     0.452857143       3
     0.896445896     0.458964459     0.452857143       2
     0.906345906     0.459063459     0.452857143       3
     0.906246906     0.469062469     0.452857143       2
     0.916146916     0.469161469     0.452857143       3
     0.916047916     0.479160479     0.452857143       2
     0.925947926     0.479259479     0.452857143       3
     0.925848926     0.489258489     0.452857143       2
     0.935748936     0.489357489     0.452857143       3
     0.935649936     0.499356499     0.452857143       2
     0.945549946     0.499455499     0.452857143       3
     0.945450945     0.509454509     0.452857143       2
     0.955350955     0.509553510     0.452857143       3
     0.955251955     0.519552520     0.452857143       2
     0.965151965     0.519651520     0.452857143       3
     0.965052965     0.529650530     0.452857143       2
     0.974952975     0.529749530     0.452857143       3
     0.974853975     0.539748540     0.452857143       2
     0.984753985     0.539847540     0.452857143       3
     0.984654985     0.549846550     0.452857143       2
     0.994554995     0.549945550     0.452857143       3
     0.994455994     0.559944560     0.452857143       2
     0.004356004     0.560043560     0.452857143       3
     0.004257004     0.570042570     0.452857143       2
     0.014157014     0.570141570     0.452857143       3
     0.014058014     0.580140580     0.452857143       2
     0.023958024     0.580239580     0.452857143       3
     0.023859024     0.590238590     0.452857143       2
     0.033759034     0.590337590     0.452857143       3
     0.033660034     0.600336600     0.452857143       2
     0.043560044     0.600435600     0.452857143       3
     0.043461043     0.610434610     0.452857143       2
     0.053361053     0.610533611     0.452857143       3
     0.053262053     0.620532621     0.452857143       2
     0.063162063     0.620631621     0.452857143       3
     0.063063063     0.630630631     0.452857143       2
     0.072963073     0.630729631     0.452857143       3
     0.072864073     0.640728641     0.452857143       2
     0.082764083     0.640827641     0.452857143       3
     0.082665083     0.650826651     0.452857143       2
     0.092565093     0.650925651     0.452857143       3
     0.092466092     0.660924661     0.452857143       2
     0.102366102     0.661023661     0.452857143       3
     0.102267102     0.671022671     0.452857143       2
     0.112167112     0.671121671     0.452857143       3
     0.112068112     0.681120681     0.452857143       2
     0.121968122     0.681219681     0.452857143       3
     0.121869122     0.691218691     0.452857143       2
     0.131769132     0.691317691     0.452857143       3
     0.131670132     0.701316701     0.452857143       2
     0.141570142     0.701415701     0.452857143       3
     0.141471141     0.711414711     0.452857143       2
     0.151371151     0.711513712     0.452857143       3
     0.151272151     0.721512722     0.452857143       2
     0.161172161     0.721611722     0.452857143       3
     0.161073161     0.731610732     0.452857143       2
     0.170973171     0.731709732     0.452857143       3
     0.170874171     0.741708742     0.452857143       2
     0.180774181     0.741807742     0.452857143       3
     0.180675181     0.751806752     0.452857143       2
     0.190575191     0.751905752     0.452857143       3
     0.190476190     0.761904762     0.452857143       2
     0.200376200     0.762003762     0.452857143       3
     0.200277200     0.772002772     0.452857143       2
     0.210177210     0.772101772     0.452857143       3
     0.210078210     0.782100782     0.452857143       2
     0.219978220     0.782199782     0.452857143       3
     0.219879220     0.792198792     0.452857143       2
     0.229779230     0.792297792     0.452857143       3
     0.229680230     0.802296802     0.452857143       2
     0.239580240     0.802395802     0.452857143       3
     0.239481239     0.812394812     0.452857143       2
     0.249381249     0.812493812     0.452857143       3
     0.249282249     0.822492822     0.452857143       2
     0.259182259     0.822591823     0.452857143       3
     0.259083259     0.832590833     0.452857143       2
     0.268983269     0.832689833     0.452857143       3
     0.268884269     0.842688843     0.452857143       2
     0.278784279     0.842787843     0.452857143       3
     0.278685279     0.852786853     0.452857143       2
     0.288585289     0.852885853     0.452857143       3
     0.288486288     0.862884863     0.452857143       2
     0.298386298     0.862983863     0.452857143       3
     0.298287298     0.872982873     0.452857143       2
     0.308187308     0.873081873     0.452857143       3
     0.308088308     0.883080883     0.452857143       2
     0.317988318     0.883179883     0.452857143       3
     0.317889318     0.893178893     0.452857143       2
     0.327789328     0.893277893     0.452857143       3
     0.327690328     0.903276903     0.452857143       2
     0.337590338     0.903375903     0.452857143       3
     0.337491337     0.913374913     0.452857143       2
     0.347391347     0.913473913     0.452857143       3
     0.347292347     0.923472923     0.452857143       2
     0.357192357     0.923571924     0.452857143       3
     0.357093357     0.933570934     0.452857143       2
     0.366993367     0.933669934     0.452857143       3
     0.366894367     0.943668944     0.452857143       2
     0.376794377     0.943767944     0.452857143       3
     0.376695377     0.953766954     0.452857143       2
     0.386595387     0.953865954     0.452857143       3
     0.386496386     0.963864964     0.452857143       2
     0.396396396     0.963963964     0.452857143       3
     0.396297396     0.973962974     0.452857143       2
     0.406197406     0.974061974     0.452857143       3
     0.406098406     0.984060984     0.452857143       2
     0.415998416     0.984159984     0.452857143       3
     0.415899416     0.994158994     0.452857143       2
     0.425799426     0.994257994     0.452857143       3
     0.425700426     0.004257004     0.452857143       2
     0.435600436     0.004356004     0.452857143       3
     0.435501436     0.014355014     0.452857143       2
     0.445401445     0.014454014     0.452857143       3
     0.445302445     0.024453024     0.452857143       2
     0.455202455     0.024552025     0.452857143       3
     0.455103455     0.034551035     0.452857143       2
     0.465003465     0.034650035     0.452857143       3
     0.464904465     0.044649045     0.452857143       2
     0.474804475     0.044748045     0.452857143       3
     0.474705475     0.054747055     0.452857143       2
     0.484605485     0.054846055     0.452857143       3
     0.484506485     0.064845065     0.452857143       2
     0.494406494     0.064944065     0.452857143       3
     0.494307494     0.074943075     0.452857143       2
     0.504207504     0.075042075     0.452857143       3
     0.504108504     0.085041085     0.452857143       2
     0.514008514     0.085140085     0.452857143       3
     0.513909514     0.095139095     0.452857143       2
     0.523809524     0.095238095     0.452857143       3
     0.523710524     0.105237105     0.452857143       2
     0.533610534     0.105336105     0.452857143       3
     0.533511534     0.115335115     0.452857143       2
     0.543411543     0.115434115     0.452857143       3
     0.543312543     0.125433125     0.452857143       2
     0.553212553     0.125532126     0.452857143       3
     0.553113553     0.135531136     0.452857143       2
     0.563013563     0.135630136     0.452857143       3
     0.562914563     0.145629146     0.452857143       2
     0.572814573     0.145728146     0.452857143       3
     0.572715573     0.155727156     0.452857143       2
     0.582615583     0.155826156     0.452857143       3
     0.582516583     0.165825166     0.452857143       2
     0.592416592     0.165924166     0.452857143       3
     0.592317592     0.175923176     0.452857143       2
     0.602217602     0.176022176     0.452857143       3
     0.602118602     0.186021186     0.452857143       2
     0.612018612     0.186120186     0.452857143       3
     0.611919612     0.196119196     0.452857143       2
     0.621819622     0.196218196     0.452857143       3
     0.621720622     0.206217206     0.452857143       2
     0.631620632     0.206316206     0.452857143       3
     0.631521632     0.216315216     0.452857143       2
     0.641421641     0.216414216     0.452857143       3
     0.641322641     0.226413226     0.452857143       2
     0.651222651     0.226512227     0.452857143       3
     0.651123651     0.236511237     0.452857143       2
     0.661023661     0.236610237     0.452857143       3
     0.660924661     0.246609247     0.452857143       2
     0.670824671     0.246708247     0.452857143       3
     0.670725671     0.256707257     0.452857143       2
     0.680625681     0.256806257     0.452857143       3
     0.680526681     0.266805267     0.452857143       2
     0.690426690     0.266904267     0.452857143       3
     0.690327690     0.276903277     0.452857143       2
     0.700227700     0.277002277     0.452857143       3
     0.700128700     0.287001287     0.452857143       2
     0.710028710     0.287100287     0.452857143       3
     0.709929710     0.297099297     0.452857143       2
     0.719829720     0.297198297     0.452857143       3
     0.719730720     0.307197307     0.452857143       2
     0.729630730     0.307296307     0.452857143       3
     0.729531730     0.317295317     0.452857143       2
     0.739431739     0.317394317     0.452857143       3
     0.739332739     0.327393327     0.452857143       2
     0.749232749     0.327492327     0.452857143       3
     0.749133749     0.337491337     0.452857143       2
     0.759033759     0.337590338     0.452857143       3
     0.758934759     0.347589348     0.452857143       2
     0.768834769     0.347688348     0.452857143       3
     0.768735769     0.357687358     0.452857143       2
     0.778635779     0.357786358     0.452857143       3
     0.778536779     0.367785368     0.452857143       2
     0.788436788     0.367884368     0.452857143       3
     0.788337788     0.377883378     0.452857143       2
     0.798237798     0.377982378     0.452857143       3
     0.798138798     0.387981388     0.452857143       2
     0.808038808     0.388080388     0.452857143       3
     0.807939808     0.398079398     0.452857143       2
     0.817839818     0.398178398     0.452857143       3
     0.817740818     0.408177408     0.452857143       2
     0.827640828     0.408276408     0.452857143       3
     0.827541828     0.418275418     0.452857143       2
     0.837441837     0.418374418     0.452857143       3
     0.837342837     0.428373428     0.452857143       2
     0.847242847     0.428472428     0.452857143       3
     0.847143847     0.438471438     0.452857143       2
     0.857043857     0.438570439     0.452857143       3
     0.856944857     0.448569449     0.452857143       2
     0.866844867     0.448668449     0.452857143       3
     0.866745867     0.458667459     0.452857143       2
     0.876645877     0.458766459     0.452857143       3
     0.876546877     0.468765469     0.452857143       2
     0.886446886     0.468864469     0.452857143       3
     0.886347886     0.478863479     0.452857143       2
     0.896247896     0.478962479     0.452857143       3
     0.896148896     0.488961489     0.452857143       2
     0.906048906     0.489060489     0.452857143       3
     0.905949906     0.499059499     0.452857143       2
     0.915849916     0.499158499     0.452857143       3
     0.915750916     0.509157509     0.452857143       2
     0.925650926     0.509256509     0.452857143       3
     0.925551926     0.519255519     0.452857143       2
     0.935451935     0.519354519     0.452857143       3
     0.935352935     0.529353529     0.452857143       2
     0.945252945     0.529452529     0.452857143       3
     0.945153945     0.539451539     0.452857143       2
     0.955053955     0.539550540     0.452857143       3
     0.954954955     0.549549550     0.452857143       2
     0.964854965     0.549648550     0.452857143       3
     0.964755965     0.559647560     0.452857143       2
     0.974655975     0.559746560     0.452857143       3
     0.974556975     0.569745570     0.452857143       2
     0.984456984     0.569844570     0.452857143       3
     0.984357984     0.579843580     0.452857143       2
     0.994257994     0.579942580     0.452857143       3
     0.994158994     0.589941590     0.452857143       2
     0.004059004     0.590040590     0.452857143       3
     0.003960004     0.600039600     0.452857143       2
     0.013860014     0.600138600     0.452857143       3
     0.013761014     0.610137610     0.452857143       2
     0.023661024     0.610236610     0.452857143       3
     0.023562024     0.620235620     0.452857143       2
     0.033462033     0.620334620     0.452857143       3
     0.033363033     0.630333630     0.452857143       2
     0.043263043     0.630432630     0.452857143       3
     0.043164043     0.640431640     0.452857143       2
     0.053064053     0.640530641     0.452857143       3
     0.052965053     0.650529651     0.452857143       2
     0.062865063     0.650628651     0.452857143       3
     0.062766063     0.660627661     0.452857143       2
     0.072666073     0.660726661     0.452857143       3
     0.072567073     0.670725671     0.452857143       2
     0.082467082     0.670824671     0.452857143       3
     0.082368082     0.680823681     0.452857143       2
     0.092268092     0.680922681     0.452857143       3
     0.092169092     0.690921691     0.452857143       2
     0.102069102     0.691020691     0.452857143       3
     0.101970102     0.701019701     0.452857143       2
     0.111870112     0.701118701     0.452857143       3
     0.111771112     0.711117711     0.452857143       2
     0.121671122     0.711216711     0.452857143       3
     0.121572122     0.721215721     0.452857143       2
     0.131472131     0.721314721     0.452857143       3
     0.131373131     0.731313731     0.452857143       2
     0.141273141     0.731412731     0.452857143       3
     0.141174141     0.741411741     0.452857143       2
     0.151074151     0.741510742     0.452857143       3
     0.150975151     0.751509752     0.452857143       2
     0.160875161     0.751608752     0.452857143       3
     0.160776161     0.761607762     0.452857143       2
     0.170676171     0.761706762     0.452857143       3
     0.170577171     0.771705772     0.452857143       2
     0.180477180     0.771804772     0.452857143       3
     0.180378180     0.781803782     0.452857143       2
     0.190278190     0.781902782     0.452857143       3
     0.190179190     0.791901792     0.452857143       2
     0.200079200     0.792000792     0.452857143       3
     0.199980200     0.801999802     0.452857143       2
     0.209880210     0.802098802     0.452857143       3
     0.209781210     0.812097812     0.452857143       2
     0.219681220     0.812196812     0.452857143       3
     0.219582220     0.822195822     0.452857143       2
     0.229482229     0.822294822     0.452857143       3
     0.229383229     0.832293832     0.452857143       2
     0.239283239     0.832392832     0.452857143       3
     0.239184239     0.842391842     0.452857143       2
     0.249084249     0.842490842     0.452857143       3
     0.248985249     0.852489852     0.452857143       2
     0.258885259     0.852588853     0.452857143       3
     0.258786259     0.862587863     0.452857143       2
     0.268686269     0.862686863     0.452857143       3
     0.268587269     0.872685873     0.452857143       2
     0.278487278     0.872784873     0.452857143       3
     0.278388278     0.882783883     0.452857143       2
     0.288288288     0.882882883     0.452857143       3
     0.288189288     0.892881893     0.452857143       2
     0.298089298     0.892980893     0.452857143       3
     0.297990298     0.902979903     0.452857143       2
     0.307890308     0.903078903     0.452857143       3
     0.307791308     0.913077913     0.452857143       2
     0.317691318     0.913176913     0.452857143       3
     0.317592318     0.923175923     0.452857143       2
     0.327492327     0.923274923     0.452857143       3
     0.327393327     0.933273933     0.452857143       2
     0.337293337     0.933372933     0.452857143       3
     0.337194337     0.943371943     0.452857143       2
     0.347094347     0.943470943     0.452857143       3
     0.346995347     0.953469953     0.452857143       2
     0.356895357     0.953568954     0.452857143       3
     0.356796357     0.963567964     0.452857143       2
     0.366696367     0.963666964     0.452857143       3
     0.366597367     0.973665974     0.452857143       2
     0.376497376     0.973764974     0.452857143       3
     0.376398376     0.983763984     0.452857143       2
     0.386298386     0.983862984     0.452857143       3
     0.386199386     0.993861994     0.452857143       2
     0.396099396     0.993960994     0.452857143       3
     0.396000396     0.003960004     0.452857143       2
     0.405900406     0.004059004     0.452857143       3
     0.405801406     0.014058014     0.452857143       2
     0.415701416     0.014157014     0.452857143       3
     0.415602416     0.024156024     0.452857143       2
     0.425502426     0.024255024     0.452857143       3
     0.425403425     0.034254034     0.452857143       2
     0.435303435     0.034353034     0.452857143       3
     0.435204435     0.044352044     0.452857143       2
     0.445104445     0.044451044     0.452857143       3
     0.445005445     0.054450054     0.452857143       2
     0.454905455     0.054549055     0.452857143       3
     0.454806455     0.064548065     0.452857143       2
     0.464706465     0.064647065     0.452857143       3
     0.464607465     0.074646075     0.452857143       2
     0.474507475     0.074745075     0.452857143       3
     0.474408474     0.084744085     0.452857143       2
     0.484308484     0.084843085     0.452857143       3
     0.484209484     0.094842095     0.452857143       2
     0.494109494     0.094941095     0.452857143       3
     0.494010494     0.104940105     0.452857143       2
     0.503910504     0.105039105     0.452857143       3
     0.503811504     0.115038115     0.452857143       2
     0.513711514     0.115137115     0.452857143       3
     0.513612514     0.125136125     0.452857143       2
     0.523512524     0.125235125     0.452857143       3
     0.523413523     0.135234135     0.452857143       2
     0.533313533     0.135333135     0.452857143       3
     0.533214533     0.145332145     0.452857143       2
     0.543114543     0.145431145     0.452857143       3
     0.543015543     0.155430155     0.452857143       2
     0.552915553     0.155529156     0.452857143       3
     0.552816553     0.165528166     0.452857143       2
     0.562716563     0.165627166     0.452857143       3
     0.562617563     0.175626176     0.452857143       2
     0.572517573     0.175725176     0.452857143       3
     0.572418572     0.185724186     0.452857143       2
     0.582318582     0.185823186     0.452857143       3
     0.582219582     0.195822196     0.452857143       2
     0.592119592     0.195921196     0.452857143       3
     0.592020592     0.205920206     0.452857143       2
     0.601920602     0.206019206     0.452857143       3
     0.601821602     0.216018216     0.452857143       2
     0.611721612     0.216117216     0.452857143       3
     0.611622612     0.226116226     0.452857143       2
     0.621522622     0.226215226     0.452857143       3
     0.621423621     0.236214236     0.452857143       2
     0.631323631     0.236313236     0.452857143       3
     0.631224631     0.246312246     0.452857143       2
     0.641124641     0.246411246     0.452857143       3
     0.641025641     0.256410256     0.452857143       2
     0.650925651     0.256509257     0.452857143       3
     0.650826651     0.266508267     0.452857143       2
     0.660726661     0.266607267     0.452857143       3
     0.660627661     0.276606277     0.452857143       2
     0.670527671     0.276705277     0.452857143       3
     0.670428670     0.286704287     0.452857143       2
     0.680328680     0.286803287     0.452857143       3
     0.680229680     0.296802297     0.452857143       2
     0.690129690     0.296901297     0.452857143       3
     0.690030690     0.306900307     0.452857143       2
     0.699930700     0.306999307     0.452857143       3
     0.699831700     0.316998317     0.452857143       2
     0.709731710     0.317097317     0.452857143       3
     0.709632710     0.327096327     0.452857143       2
     0.719532720     0.327195327     0.452857143       3
     0.719433719     0.337194337     0.452857143       2
     0.729333729     0.337293337     0.452857143       3
     0.729234729     0.347292347     0.452857143       2
     0.739134739     0.347391347     0.452857143       3
     0.739035739     0.357390357     0.452857143       2
     0.748935749     0.357489357     0.452857143       3
     0.748836749     0.367488367     0.452857143       2
     0.758736759     0.367587368     0.452857143       3
     0.758637759     0.377586378     0.452857143       2
     0.768537769     0.377685378     0.452857143       3
     0.768438768     0.387684388     0.452857143       2
     0.778338778     0.387783388     0.452857143       3
     0.778239778     0.397782398     0.452857143       2
     0.788139788     0.397881398     0.452857143       3
     0.788040788     0.407880408     0.452857143       2
     0.797940798     0.407979408     0.452857143       3
     0.797841798     0.417978418     0.452857143       2
     0.807741808     0.418077418     0.452857143       3
     0.807642808     0.428076428     0.452857143       2
     0.817542818     0.428175428     0.452857143       3
     0.817443817     0.438174438     0.452857143       2
     0.827343827     0.438273438     0.452857143       3
     0.827244827     0.448272448     0.452857143       2
     0.837144837     0.448371448     0.452857143       3
     0.837045837     0.458370458     0.452857143       2
     0.846945847     0.458469458     0.452857143       3
     0.846846847     0.468468468     0.452857143       2
     0.856746857     0.468567469     0.452857143       3
     0.856647857     0.478566479     0.452857143       2
     0.866547867     0.478665479     0.452857143       3
     0.866448866     0.488664489     0.452857143       2
     0.876348876     0.488763489     0.452857143       3
     0.876249876     0.498762499     0.452857143       2
     0.886149886     0.498861499     0.452857143       3
     0.886050886     0.508860509     0.452857143       2
     0.895950896     0.508959509     0.452857143       3
     0.895851896     0.518958519     0.452857143       2
     0.905751906     0.519057519     0.452857143       3
     0.905652906     0.529056529     0.452857143       2
     0.915552916     0.529155529     0.452857143       3
     0.915453915     0.539154539     0.452857143       2
     0.925353925     0.539253539     0.452857143       3
     0.925254925     0.549252549     0.452857143       2
     0.935154935     0.549351549     0.452857143       3
     0.935055935     0.559350559     0.452857143       2
     0.944955945     0.559449559     0.452857143       3
     0.944856945     0.569448569     0.452857143       2
     0.954756955     0.569547570     0.452857143       3
     0.954657955     0.579546580     0.452857143       2
     0.964557965     0.579645580     0.452857143       3
     0.964458964     0.589644590     0.452857143       2
     0.974358974     0.589743590     0.452857143       3
     0.974259974     0.599742600     0.452857143       2
     0.984159984     0.599841600     0.452857143       3
     0.984060984     0.609840610     0.452857143       2
     0.993960994     0.609939610     0.452857143       3
     0.993861994     0.619938620     0.452857143       2
     0.003762004     0.620037620     0.452857143       3
     0.003663004     0.630036630     0.452857143       2
     0.013563014     0.630135630     0.452857143       3
     0.013464013     0.640134640     0.452857143       2
     0.023364023     0.640233640     0.452857143       3
     0.023265023     0.650232650     0.452857143       2
     0.033165033     0.650331650     0.452857143       3
     0.033066033     0.660330660     0.452857143       2
     0.042966043     0.660429660     0.452857143       3
     0.042867043     0.670428670     0.452857143       2
     0.052767053     0.670527671     0.452857143       3
     0.052668053     0.680526681     0.452857143       2
     0.062568063     0.680625681     0.452857143       3
     0.062469062     0.690624691     0.452857143       2
     0.072369072     0.690723691     0.452857143       3
     0.072270072     0.700722701     0.452857143       2
     0.082170082     0.700821701     0.452857143       3
     0.082071082     0.710820711     0.452857143       2
     0.091971092     0.710919711     0.452857143       3
     0.091872092     0.720918721     0.452857143       2
     0.101772102     0.721017721     0.452857143       3
     0.101673102     0.731016731     0.452857143       2
     0.111573112     0.731115731     0.452857143       3
     0.111474111     0.741114741     0.452857143       2
     0.121374121     0.741213741     0.452857143       3
     0.121275121     0.751212751     0.452857143       2
     0.131175131     0.751311751     0.452857143       3
     0.131076131     0.761310761     0.452857143       2
     0.140976141     0.761409761     0.452857143       3
     0.140877141     0.771408771     0.452857143       2
     0.150777151     0.771507772     0.452857143       3
     0.150678151     0.781506782     0.452857143       2
     0.160578161     0.781605782     0.452857143       3
     0.160479160     0.791604792     0.452857143       2
     0.170379170     0.791703792     0.452857143       3
     0.170280170     0.801702802     0.452857143       2
     0.180180180     0.801801802     0.452857143       3
     0.180081180     0.811800812     0.452857143       2
     0.189981190     0.811899812     0.452857143       3
     0.189882190     0.821898822     0.452857143       2
     0.199782200     0.821997822     0.452857143       3
     0.199683200     0.831996832     0.452857143       2
     0.209583210     0.832095832     0.452857143       3
     0.209484209     0.842094842     0.452857143       2
     0.219384219     0.842193842     0.452857143       3
     0.219285219     0.852192852     0.452857143       2
     0.229185229     0.852291852     0.452857143       3
     0.229086229     0.862290862     0.452857143       2
     0.238986239     0.862389862     0.452857143       3
     0.238887239     0.872388872     0.452857143       2
     0.248787249     0.872487872     0.452857143       3
     0.248688249     0.882486882     0.452857143       2
     0.258588259     0.882585883     0.452857143       3
     0.258489258     0.892584893     0.452857143       2
     0.268389268     0.892683893     0.452857143       3
     0.268290268     0.902682903     0.452857143       2
     0.278190278     0.902781903     0.452857143       3
     0.278091278     0.912780913     0.452857143       2
     0.287991288     0.912879913     0.452857143       3
     0.287892288     0.922878923     0.452857143       2
     0.297792298     0.922977923     0.452857143       3
     0.297693298     0.932976933     0.452857143       2
     0.307593308     0.933075933     0.452857143       3
     0.307494307     0.943074943     0.452857143       2
     0.317394317     0.943173943     0.452857143       3
     0.317295317     0.953172953     0.452857143       2
     0.327195327     0.953271953     0.452857143       3
     0.327096327     0.963270963     0.452857143       2
     0.336996337     0.963369963     0.452857143       3
     0.336897337     0.973368973     0.452857143       2
     0.346797347     0.973467973     0.452857143       3
     0.346698347     0.983466983     0.452857143       2
     0.356598357     0.983565984     0.452857143       3
     0.356499356     0.993564994     0.452857143       2
     0.366399366     0.993663994     0.452857143       3
     0.366300366     0.003663004     0.452857143       2
     0.376200376     0.003762004     0.452857143       3
     0.376101376     0.013761014     0.452857143       2
     0.386001386     0.013860014     0.452857143       3
     0.385902386     0.023859024     0.452857143       2
     0.395802396     0.023958024     0.452857143       3
     0.395703396     0.033957034     0.452857143       2
     0.405603406     0.034056034     0.452857143       3
     0.405504406     0.044055044     0.452857143       2
     0.415404415     0.044154044     0.452857143       3
     0.415305415     0.054153054     0.452857143       2
     0.425205425     0.054252054     0.452857143       3
     0.425106425     0.064251064     0.452857143       2
     0.435006435     0.064350064     0.452857143       3
     0.434907435     0.074349074     0.452857143       2
     0.444807445     0.074448074     0.452857143       3
     0.444708445     0.084447084     0.452857143       2
     0.454608455     0.084546085     0.452857143       3
     0.454509455     0.094545095     0.452857143       2
     0.464409464     0.094644095     0.452857143       3
     0.464310464     0.104643105     0.452857143       2
     0.474210474     0.104742105     0.452857143       3
     0.474111474     0.114741115     0.452857143       2
     0.484011484     0.114840115     0.452857143       3
     0.483912484     0.124839125     0.452857143       2
     0.493812494     0.124938125     0.452857143       3
     0.493713494     0.134937135     0.452857143       2
     0.503613504     0.135036135     0.452857143       3
     0.503514504     0.145035145     0.452857143       2
     0.513414513     0.145134145     0.452857143       3
     0.513315513     0.155133155     0.452857143       2
     0.523215523     0.155232155     0.452857143       3
     0.523116523     0.165231165     0.452857143       2
     0.533016533     0.165330165     0.452857143       3
     0.532917533     0.175329175     0.452857143       2
     0.542817543     0.175428175     0.452857143       3
     0.542718543     0.185427185     0.452857143       2
     0.552618553     0.185526186     0.452857143       3
     0.552519553     0.195525196     0.452857143       2
     0.562419562     0.195624196     0.452857143       3
     0.562320562     0.205623206     0.452857143       2
     0.572220572     0.205722206     0.452857143       3
     0.572121572     0.215721216     0.452857143       2
     0.582021582     0.215820216     0.452857143       3
     0.581922582     0.225819226     0.452857143       2
     0.591822592     0.225918226     0.452857143       3
     0.591723592     0.235917236     0.452857143       2
     0.601623602     0.236016236     0.452857143       3
     0.601524602     0.246015246     0.452857143       2
     0.611424611     0.246114246     0.452857143       3
     0.611325611     0.256113256     0.452857143       2
     0.621225621     0.256212256     0.452857143       3
     0.621126621     0.266211266     0.452857143       2
     0.631026631     0.266310266     0.452857143       3
     0.630927631     0.276309276     0.452857143       2
     0.640827641     0.276408276     0.452857143       3
     0.640728641     0.286407286     0.452857143       2
     0.650628651     0.286506287     0.452857143       3
     0.650529651     0.296505297     0.452857143       2
     0.660429660     0.296604297     0.452857143       3
     0.660330660     0.306603307     0.452857143       2
     0.670230670     0.306702307     0.452857143       3
     0.670131670     0.316701317     0.452857143       2
     0.680031680     0.316800317     0.452857143       3
     0.679932680     0.326799327     0.452857143       2
     0.689832690     0.326898327     0.452857143       3
     0.689733690     0.336897337     0.452857143       2
     0.699633700     0.336996337     0.452857143       3
     0.699534700     0.346995347     0.452857143       2
     0.709434709     0.347094347     0.452857143       3
     0.709335709     0.357093357     0.452857143       2
     0.719235719     0.357192357     0.452857143       3
     0.719136719     0.367191367     0.452857143       2
     0.729036729     0.367290367     0.452857143       3
     0.728937729     0.377289377     0.452857143       2
     0.738837739     0.377388377     0.452857143       3
     0.738738739     0.387387387     0.452857143       2
     0.748638749     0.387486387     0.452857143       3
     0.748539749     0.397485397     0.452857143       2
     0.758439758     0.397584398     0.452857143       3
     0.758340758     0.407583408     0.452857143       2
     0.768240768     0.407682408     0.452857143       3
     0.768141768     0.417681418     0.452857143       2
     0.778041778     0.417780418     0.452857143       3
     0.777942778     0.427779428     0.452857143       2
     0.787842788     0.427878428     0.452857143       3
     0.787743788     0.437877438     0.452857143       2
     0.797643798     0.437976438     0.452857143       3
     0.797544798     0.447975448     0.452857143       2
     0.807444807     0.448074448     0.452857143       3
     0.807345807     0.458073458     0.452857143       2
     0.817245817     0.458172458     0.452857143       3
     0.817146817     0.468171468     0.452857143       2
     0.827046827     0.468270468     0.452857143       3
     0.826947827     0.478269478     0.452857143       2
     0.836847837     0.478368478     0.452857143       3
     0.836748837     0.488367488     0.452857143       2
     0.846648847     0.488466488     0.452857143       3
     0.846549847     0.498465498     0.452857143       2
     0.856449856     0.498564499     0.452857143       3
     0.856350856     0.508563509     0.452857143       2
     0.866250866     0.508662509     0.452857143       3
     0.866151866     0.518661519     0.452857143       2
     0.876051876     0.518760519     0.452857143       3
     0.875952876     0.528759529     0.452857143       2
     0.885852886     0.528858529     0.452857143       3
     0.885753886     0.538857539     0.452857143       2
     0.895653896     0.538956539     0.452857143       3
     0.895554896     0.548955549     0.452857143       2
     0.905454905     0.549054549     0.452857143       3
     0.905355905     0.559053559     0.452857143       2
     0.915255915     0.559152559     0.452857143       3
     0.915156915     0.569151569     0.452857143       2
     0.925056925     0.569250569     0.452857143       3
     0.924957925     0.579249579     0.452857143       2
     0.934857935     0.579348579     0.452857143       3
     0.934758935     0.589347589     0.452857143       2
     0.944658945     0.589446589     0.452857143       3
     0.944559945     0.599445599     0.452857143       2
     0.954459954     0.599544600     0.452857143       3
     0.954360954     0.609543610     0.452857143       2
     0.964260964     0.609642610     0.452857143       3
     0.964161964     0.619641620     0.452857143       2
     0.974061974     0.619740620     0.452857143       3
     0.973962974     0.629739630     0.452857143       2
     0.983862984     0.629838630     0.452857143       3
     0.983763984     0.639837640     0.452857143       2
     0.993663994     0.639936640     0.452857143       3
     0.993564994     0.649935650     0.452857143       2
     0.003465003     0.650034650     0.452857143       3
     0.003366003     0.660033660     0.452857143       2
     0.013266013     0.660132660     0.452857143       3
     0.013167013     0.670131670     0.452857143       2
     0.023067023     0.670230670     0.452857143       3
     0.022968023     0.680229680     0.452857143       2
     0.032868033     0.680328680     0.452857143       3
     0.032769033     0.690327690     0.452857143       2
     0.042669043     0.690426690     0.452857143       3
     0.042570043     0.700425700     0.452857143       2
     0.052470052     0.700524701     0.452857143       3
     0.052371052     0.710523711     0.452857143       2
     0.062271062     0.710622711     0.452857143       3
     0.062172062     0.720621721     0.452857143       2
     0.072072072     0.720720721     0.452857143       3
     0.071973072     0.730719731     0.452857143       2
     0.081873082     0.730818731     0.452857143       3
     0.081774082     0.740817741     0.452857143       2
     0.091674092     0.740916741     0.452857143       3
     0.091575092     0.750915751     0.452857143       2
     0.101475101     0.751014751     0.452857143       3
     0.101376101     0.761013761     0.452857143       2
     0.111276111     0.761112761     0.452857143       3
     0.111177111     0.771111771     0.452857143       2
     0.121077121     0.771210771     0.452857143       3
     0.120978121     0.781209781     0.452857143       2
     0.130878131     0.781308781     0.452857143       3
     0.130779131     0.791307791     0.452857143       2
     0.140679141     0.791406791     0.452857143       3
     0.140580141     0.801405801     0.452857143       2
     0.150480150     0.801504802     0.452857143       3
     0.150381150     0.811503812     0.452857143       2
     0.160281160     0.811602812     0.452857143       3
     0.160182160     0.821601822     0.452857143       2
     0.170082170     0.821700822     0.452857143       3
     0.169983170     0.831699832     0.452857143       2
     0.179883180     0.831798832     0.452857143       3
     0.179784180     0.841797842     0.452857143       2
     0.189684190     0.841896842     0.452857143       3
     0.189585190     0.851895852     0.452857143       2
     0.199485199     0.851994852     0.452857143       3
     0.199386199     0.861993862     0.452857143       2
     0.209286209     0.862092862     0.452857143       3
     0.209187209     0.872091872     0.452857143       2
     0.219087219     0.872190872     0.452857143       3
     0.218988219     0.882189882     0.452857143       2
     0.228888229     0.882288882     0.452857143       3
     0.228789229     0.892287892     0.452857143       2
     0.238689239     0.892386892     0.452857143       3
     0.238590239     0.902385902     0.452857143       2
     0.248490248     0.902484902     0.452857143       3
     0.248391248     0.912483912     0.452857143       2
     0.258291258     0.912582913     0.452857143       3
     0.258192258     0.922581923     0.452857143       2
     0.268092268     0.922680923     0.452857143       3
     0.267993268     0.932679933     0.452857143       2
     0.277893278     0.932778933     0.452857143       3
     0.277794278     0.942777943     0.452857143       2
     0.287694288     0.942876943     0.452857143       3
     0.287595288     0.952875953     0.452857143       2
     0.297495297     0.952974953     0.452857143       3
     0.297396297     0.962973963     0.452857143       2
     0.307296307     0.963072963     0.452857143       3
     0.307197307     0.973071973     0.452857143       2
     0.317097317     0.973170973     0.452857143       3
     0.316998317     0.983169983     0.452857143       2
     0.326898327     0.983268983     0.452857143       3
     0.326799327     0.993267993     0.452857143       2
     0.336699337     0.993366993     0.452857143       3
     0.336600337     0.003366003     0.452857143       2
     0.346500347     0.003465003     0.452857143       3
     0.346401346     0.013464013     0.452857143       2
     0.356301356     0.013563014     0.452857143       3
     0.356202356     0.023562024     0.452857143       2
     0.366102366     0.023661024     0.452857143       3
     0.366003366     0.033660034     0.452857143       2
     0.375903376     0.033759034     0.452857143       3
     0.375804376     0.043758044     0.452857143       2
     0.385704386     0.043857044     0.452857143       3
     0.385605386     0.053856054     0.452857143       2
     0.395505396     0.053955054     0.452857143       3
     0.395406395     0.063954064     0.452857143       2
     0.405306405     0.064053064     0.452857143       3
     0.405207405     0.074052074     0.452857143       2
     0.415107415     0.074151074     0.452857143       3
     0.415008415     0.084150084     0.452857143       2
     0.424908425     0.084249084     0.452857143       3
     0.424809425     0.094248094     0.452857143       2
     0.434709435     0.094347094     0.452857143       3
     0.434610435     0.104346104     0.452857143       2
     0.444510445     0.104445104     0.452857143       3
     0.444411444     0.114444114     0.452857143       2
     0.454311454     0.114543115     0.452857143       3
     0.454212454     0.124542125     0.452857143       2
     0.464112464     0.124641125     0.452857143       3
     0.464013464     0.134640135     0.452857143       2
     0.473913474     0.134739135     0.452857143       3
     0.473814474     0.144738145     0.452857143       2
     0.483714484     0.144837145     0.452857143       3
     0.483615484     0.154836155     0.452857143       2
     0.493515494     0.154935155     0.452857143       3
     0.493416493     0.164934165     0.452857143       2
     0.503316503     0.165033165     0.452857143       3
     0.503217503     0.175032175     0.452857143       2
     0.513117513     0.175131175     0.452857143       3
     0.513018513     0.185130185     0.452857143       2
     0.522918523     0.185229185     0.452857143       3
     0.522819523     0.195228195     0.452857143       2
     0.532719533     0.195327195     0.452857143       3
     0.532620533     0.205326205     0.452857143       2
     0.542520543     0.205425205     0.452857143       3
     0.542421542     0.215424215     0.452857143       2
     0.552321552     0.215523216     0.452857143       3
     0.552222552     0.225522226     0.452857143       2
     0.562122562     0.225621226     0.452857143       3
     0.562023562     0.235620236     0.452857143       2
     0.571923572     0.235719236     0.452857143       3
     0.571824572     0.245718246     0.452857143       2
     0.581724582     0.245817246     0.452857143       3
     0.581625582     0.255816256     0.452857143       2
     0.591525592     0.255915256     0.452857143       3
     0.591426591     0.265914266     0.452857143       2
     0.601326601     0.266013266     0.452857143       3
     0.601227601     0.276012276     0.452857143       2
     0.611127611     0.276111276     0.452857143       3
     0.611028611     0.286110286     0.452857143       2
     0.620928621     0.286209286     0.452857143       3
     0.620829621     0.296208296     0.452857143       2
     0.630729631     0.296307296     0.452857143       3
     0.630630631     0.306306306     0.452857143       2
     0.640530641     0.306405306     0.452857143       3
     0.640431640     0.316404316     0.452857143       2
     0.650331650     0.316503317     0.452857143       3
     0.650232650     0.326502327     0.452857143       2
     0.660132660     0.326601327     0.452857143       3
     0.660033660     0.336600337     0.452857143       2
     0.669933670     0.336699337     0.452857143       3
     0.669834670     0.346698347     0.452857143       2
     0.679734680     0.346797347     0.452857143       3
     0.679635680     0.356796357     0.452857143       2
     0.689535690     0.356895357     0.452857143       3
     0.689436689     0.366894367     0.452857143       2
     0.699336699     0.366993367     0.452857143       3
     0.699237699     0.376992377     0.452857143       2
     0.709137709     0.377091377     0.452857143       3
     0.709038709     0.387090387     0.452857143       2
     0.718938719     0.387189387     0.452857143       3
     0.718839719     0.397188397     0.452857143       2
     0.728739729     0.397287397     0.452857143       3
     0.728640729     0.407286407     0.452857143       2
     0.738540739     0.407385407     0.452857143       3
     0.738441738     0.417384417     0.452857143       2
     0.748341748     0.417483417     0.452857143       3
     0.748242748     0.427482427     0.452857143       2
     0.758142758     0.427581428     0.452857143       3
     0.758043758     0.437580438     0.452857143       2
     0.767943768     0.437679438     0.452857143       3
     0.767844768     0.447678448     0.452857143       2
     0.777744778     0.447777448     0.452857143       3
     0.777645778     0.457776458     0.452857143       2
     0.787545788     0.457875458     0.452857143       3
     0.787446787     0.467874468     0.452857143       2
     0.797346797     0.467973468     0.452857143       3
     0.797247797     0.477972478     0.452857143       2
     0.807147807     0.478071478     0.452857143       3
     0.807048807     0.488070488     0.452857143       2
     0.816948817     0.488169488     0.452857143       3
     0.816849817     0.498168498     0.452857143       2
     0.826749827     0.498267498     0.452857143       3
     0.826650827     0.508266508     0.452857143       2
     0.836550837     0.508365508     0.452857143       3
     0.836451836     0.518364518     0.452857143       2
     0.846351846     0.518463518     0.452857143       3
     0.846252846     0.528462528     0.452857143       2
     0.856152856     0.528561529     0.452857143       3
     0.856053856     0.538560539     0.452857143       2
     0.865953866     0.538659539     0.452857143       3
     0.865854866     0.548658549     0.452857143       2
     0.875754876     0.548757549     0.452857143       3
     0.875655876     0.558756559     0.452857143       2
     0.885555886     0.558855559     0.452857143       3
     0.885456885     0.568854569     0.452857143       2
     0.895356895     0.568953569     0.452857143       3
     0.895257895     0.578952579     0.452857143       2
     0.905157905     0.579051579     0.452857143       3
     0.905058905     0.589050589     0.452857143       2
     0.914958915     0.589149589     0.452857143       3
     0.914859915     0.599148599     0.452857143       2
     0.924759925     0.599247599     0.452857143       3
     0.924660925     0.609246609     0.452857143       2
     0.934560935     0.609345609     0.452857143       3
     0.934461934     0.619344619     0.452857143       2
     0.944361944     0.619443619     0.452857143       3
     0.944262944     0.629442629     0.452857143       2
     0.954162954     0.629541630     0.452857143       3
     0.954063954     0.639540640     0.452857143       2
     0.963963964     0.639639640     0.452857143       3
     0.963864964     0.649638650     0.452857143       2
     0.973764974     0.649737650     0.452857143       3
     0.973665974     0.659736660     0.452857143       2
     0.983565984     0.659835660     0.452857143       3
     0.983466983     0.669834670     0.452857143       2
     0.993366993     0.669933670     0.452857143       3
     0.993267993     0.679932680     0.452857143       2
     0.003168003     0.680031680     0.452857143       3
     0.003069003     0.690030690     0.452857143       2
     0.012969013     0.690129690     0.452857143       3
     0.012870013     0.700128700     0.452857143       2
     0.022770023     0.700227700     0.452857143       3
     0.022671023     0.710226710     0.452857143       2
     0.032571033     0.710325710     0.452857143       3
     0.032472032     0.720324720     0.452857143       2
     0.042372042     0.720423720     0.452857143       3
     0.042273042     0.730422730     0.452857143       2
     0.052173052     0.730521731     0.452857143       3
     0.052074052     0.740520741     0.452857143       2
     0.061974062     0.740619741     0.452857143       3
     0.061875062     0.750618751     0.452857143       2
     0.071775072     0.750717751     0.452857143       3
     0.071676072     0.760716761     0.452857143       2
     0.081576082     0.760815761     0.452857143       3
     0.081477081     0.770814771     0.452857143       2
     0.091377091     0.770913771     0.452857143       3
     0.091278091     0.780912781     0.452857143       2
     0.101178101     0.781011781     0.452857143       3
     0.101079101     0.791010791     0.452857143       2
     0.110979111     0.791109791     0.452857143       3
     0.110880111     0.801108801     0.452857143       2
     0.120780121     0.801207801     0.452857143       3
     0.120681121     0.811206811     0.452857143       2
     0.130581131     0.811305811     0.452857143       3
     0.130482130     0.821304821     0.452857143       2
     0.140382140     0.821403821     0.452857143       3
     0.140283140     0.831402831     0.452857143       2
     0.150183150     0.831501832     0.452857143       3
     0.150084150     0.841500842     0.452857143       2
     0.159984160     0.841599842     0.452857143       3
     0.159885160     0.851598852     0.452857143       2
     0.169785170     0.851697852     0.452857143       3
     0.169686170     0.861696862     0.452857143       2
     0.179586180     0.861795862     0.452857143       3
     0.179487179     0.871794872     0.452857143       2
     0.189387189     0.871893872     0.452857143       3
     0.189288189     0.881892882     0.452857143       2
     0.199188199     0.881991882     0.452857143       3
     0.199089199     0.891990892     0.452857143       2
     0.208989209     0.892089892     0.452857143       3
     0.208890209     0.902088902     0.452857143       2
     0.218790219     0.902187902     0.452857143       3
     0.218691219     0.912186912     0.452857143       2
     0.228591229     0.912285912     0.452857143       3
     0.228492228     0.922284922     0.452857143       2
     0.238392238     0.922383922     0.452857143       3
     0.238293238     0.932382932     0.452857143       2
     0.248193248     0.932481932     0.452857143       3
     0.248094248     0.942480942     0.452857143       2
     0.257994258     0.942579943     0.452857143       3
     0.257895258     0.952578953     0.452857143       2
     0.267795268     0.952677953     0.452857143       3
     0.267696268     0.962676963     0.452857143       2
     0.277596278     0.962775963     0.452857143       3
     0.277497277     0.972774973     0.452857143       2
     0.287397287     0.972873973     0.452857143       3
     0.287298287     0.982872983     0.452857143       2
     0.297198297     0.982971983     0.452857143       3
     0.297099297     0.992970993     0.452857143       2
     0.306999307     0.993069993     0.452857143       3
     0.306900307     0.003069003     0.452857143       2
     0.316800317     0.003168003     0.452857143       3
     0.316701317     0.013167013     0.452857143       2
     0.326601327     0.013266013     0.452857143       3
     0.326502327     0.023265023     0.452857143       2
     0.336402336     0.023364023     0.452857143       3
     0.336303336     0.033363033     0.452857143       2
     0.346203346     0.033462033     0.452857143       3
     0.346104346     0.043461043     0.452857143       2
     0.356004356     0.043560044     0.452857143       3
     0.355905356     0.053559054     0.452857143       2
     0.365805366     0.053658054     0.452857143       3
     0.365706366     0.063657064     0.452857143       2
     0.375606376     0.063756064     0.452857143       3
     0.375507376     0.073755074     0.452857143       2
     0.385407385     0.073854074     0.452857143       3
     0.385308385     0.083853084     0.452857143       2
     0.395208395     0.083952084     0.452857143       3
     0.395109395     0.093951094     0.452857143       2
     0.405009405     0.094050094     0.452857143       3
     0.404910405     0.104049104     0.452857143       2
     0.414810415     0.104148104     0.452857143       3
     0.414711415     0.114147114     0.452857143       2
     0.424611425     0.114246114     0.452857143       3
     0.424512425     0.124245124     0.452857143       2
     0.434412434     0.124344124     0.452857143       3
     0.434313434     0.134343134     0.452857143       2
     0.444213444     0.134442134     0.452857143       3
     0.444114444     0.144441144     0.452857143       2
     0.454014454     0.144540145     0.452857143       3
     0.453915454     0.154539155     0.452857143       2
     0.463815464     0.154638155     0.452857143       3
     0.463716464     0.164637165     0.452857143       2
     0.473616474     0.164736165     0.452857143       3
     0.473517474     0.174735175     0.452857143       2
     0.483417483     0.174834175     0.452857143       3
     0.483318483     0.184833185     0.452857143       2
     0.493218493     0.184932185     0.452857143       3
     0.493119493     0.194931195     0.452857143       2
     0.503019503     0.195030195     0.452857143       3
     0.502920503     0.205029205     0.452857143       2
     0.512820513     0.205128205     0.452857143       3
     0.512721513     0.215127215     0.452857143       2
     0.522621523     0.215226215     0.452857143       3
     0.522522523     0.225225225     0.452857143       2
     0.532422532     0.225324225     0.452857143       3
     0.532323532     0.235323235     0.452857143       2
     0.542223542     0.235422235     0.452857143       3
     0.542124542     0.245421245     0.452857143       2
     0.552024552     0.245520246     0.452857143       3
     0.551925552     0.255519256     0.452857143       2
     0.561825562     0.255618256     0.452857143       3
     0.561726562     0.265617266     0.452857143       2
     0.571626572     0.265716266     0.452857143       3
     0.571527572     0.275715276     0.452857143       2
     0.581427581     0.275814276     0.452857143       3
     0.581328581     0.285813286     0.452857143       2
     0.591228591     0.285912286     0.452857143       3
     0.591129591     0.295911296     0.452857143       2
     0.601029601     0.296010296     0.452857143       3
     0.600930601     0.306009306     0.452857143       2
     0.610830611     0.306108306     0.452857143       3
     0.610731611     0.316107316     0.452857143       2
     0.620631621     0.316206316     0.452857143       3
     0.620532621     0.326205326     0.452857143       2
     0.630432630     0.326304326     0.452857143       3
     0.630333630     0.336303336     0.452857143       2
     0.640233640     0.336402336     0.452857143       3
     0.640134640     0.346401346     0.452857143       2
     0.650034650     0.346500347     0.452857143       3
     0.649935650     0.356499356     0.452857143       2
     0.659835660     0.356598357     0.452857143       3
     0.659736660     0.366597367     0.452857143       2
     0.669636670     0.366696367     0.452857143       3
     0.669537670     0.376695377     0.452857143       2
     0.679437679     0.376794377     0.452857143       3
     0.679338679     0.386793387     0.452857143       2
     0.689238689     0.386892387     0.452857143       3
     0.689139689     0.396891397     0.452857143       2
     0.699039699     0.396990397     0.452857143       3
     0.698940699     0.406989407     0.452857143       2
     0.708840709     0.407088407     0.452857143       3
     0.708741709     0.417087417     0.452857143       2
     0.718641719     0.417186417     0.452857143       3
     0.718542719     0.427185427     0.452857143       2
     0.728442728     0.427284427     0.452857143       3
     0.728343728     0.437283437     0.452857143       2
     0.738243738     0.437382437     0.452857143       3
     0.738144738     0.447381447     0.452857143       2
     0.748044748     0.447480447     0.452857143       3
     0.747945748     0.457479457     0.452857143       2
     0.757845758     0.457578458     0.452857143       3
     0.757746758     0.467577468     0.452857143       2
     0.767646768     0.467676468     0.452857143       3
     0.767547768     0.477675478     0.452857143       2
     0.777447777     0.477774478     0.452857143       3
     0.777348777     0.487773488     0.452857143       2
     0.787248787     0.487872488     0.452857143       3
     0.787149787     0.497871498     0.452857143       2
     0.797049797     0.497970498     0.452857143       3
     0.796950797     0.507969508     0.452857143       2
     0.806850807     0.508068508     0.452857143       3
     0.806751807     0.518067518     0.452857143       2
     0.816651817     0.518166518     0.452857143       3
     0.816552817     0.528165528     0.452857143       2
     0.826452826     0.528264528     0.452857143       3
     0.826353826     0.538263538     0.452857143       2
     0.836253836     0.538362538     0.452857143       3
     0.836154836     0.548361548     0.452857143       2
     0.846054846     0.548460548     0.452857143       3
     0.845955846     0.558459558     0.452857143       2
     0.855855856     0.558558559     0.452857143       3
     0.855756856     0.568557569     0.452857143       2
     0.865656866     0.568656569     0.452857143       3
     0.865557866     0.578655579     0.452857143       2
     0.875457875     0.578754579     0.452857143       3
     0.875358875     0.588753589     0.452857143       2
     0.885258885     0.588852589     0.452857143       3
     0.885159885     0.598851599     0.452857143       2
     0.895059895     0.598950599     0.452857143       3
     0.894960895     0.608949609     0.452857143       2
     0.904860905     0.609048609     0.452857143       3
     0.904761905     0.619047619     0.452857143       2
     0.914661915     0.619146619     0.452857143       3
     0.914562915     0.629145629     0.452857143       2
     0.924462924     0.629244629     0.452857143       3
     0.924363924     0.639243639     0.452857143       2
     0.934263934     0.639342639     0.452857143       3
     0.934164934     0.649341649     0.452857143       2
     0.944064944     0.649440649     0.452857143       3
     0.943965944     0.659439659     0.452857143       2
     0.953865954     0.659538660     0.452857143       3
     0.953766954     0.669537670     0.452857143       2
     0.963666964     0.669636670     0.452857143       3
     0.963567964     0.679635680     0.452857143       2
     0.973467973     0.679734680     0.452857143       3
     0.973368973     0.689733690     0.452857143       2
     0.983268983     0.689832690     0.452857143       3
     0.983169983     0.699831700     0.452857143       2
     0.993069993     0.699930700     0.452857143       3
     0.992970993     0.709929710     0.452857143       2
     0.002871003     0.710028710     0.452857143       3
     0.002772003     0.720027720     0.452857143       2
     0.012672013     0.720126720     0.452857143       3
     0.012573013     0.730125730     0.452857143       2
     0.022473022     0.730224730     0.452857143       3
     0.022374022     0.740223740     0.452857143       2
     0.032274032     0.740322740     0.452857143       3
     0.032175032     0.750321750     0.452857143       2
     0.042075042     0.750420750     0.452857143       3
     0.041976042     0.760419760     0.452857143       2
     0.051876052     0.760518761     0.452857143       3
     0.051777052     0.770517771     0.452857143       2
     0.061677062     0.770616771     0.452857143       3
     0.061578062     0.780615781     0.452857143       2
     0.071478071     0.780714781     0.452857143       3
     0.071379071     0.790713791     0.452857143       2
     0.081279081     0.790812791     0.452857143       3
     0.081180081     0.800811801     0.452857143       2
     0.091080091     0.800910801     0.452857143       3
     0.090981091     0.810909811     0.452857143       2
     0.100881101     0.811008811     0.452857143       3
     0.100782101     0.821007821     0.452857143       2
     0.110682111     0.821106821     0.452857143       3
     0.110583111     0.831105831     0.452857143       2
     0.120483120     0.831204831     0.452857143       3
     0.120384120     0.841203841     0.452857143       2
     0.130284130     0.841302841     0.452857143       3
     0.130185130     0.851301851     0.452857143       2
     0.140085140     0.851400851     0.452857143       3
     0.139986140     0.861399861     0.452857143       2
     0.149886150     0.861498861     0.452857143       3
     0.149787150     0.871497871     0.452857143       2
     0.159687160     0.871596872     0.452857143       3
     0.159588160     0.881595882     0.452857143       2
     0.169488169     0.881694882     0.452857143       3
     0.169389169     0.891693892     0.452857143       2
     0.179289179     0.891792892     0.452857143       3
     0.179190179     0.901791902     0.452857143       2
     0.189090189     0.901890902     0.452857143       3
     0.188991189     0.911889912     0.452857143       2
     0.198891199     0.911988912     0.452857143       3
     0.198792199     0.921987922     0.452857143       2
     0.208692209     0.922086922     0.452857143       3
     0.208593209     0.932085932     0.452857143       2
     0.218493218     0.932184932     0.452857143       3
     0.218394218     0.942183942     0.452857143       2
     0.228294228     0.942282942     0.452857143       3
     0.228195228     0.952281952     0.452857143       2
     0.238095238     0.952380952     0.452857143       3
     0.237996238     0.962379962     0.452857143       2
     0.247896248     0.962478962     0.452857143       3
     0.247797248     0.972477972     0.452857143       2
     0.257697258     0.972576973     0.452857143       3
     0.257598258     0.982575983     0.452857143       2
     0.267498267     0.982674983     0.452857143       3
     0.267399267     0.992673993     0.452857143       2
     0.277299277     0.992772993     0.452857143       3
     0.277200277     0.002772003     0.452857143       2
     0.287100287     0.002871003     0.452857143       3
     0.287001287     0.012870013     0.452857143       2
     0.296901297     0.012969013     0.452857143       3
     0.296802297     0.022968023     0.452857143       2
     0.306702307     0.023067023     0.452857143       3
     0.306603307     0.033066033     0.452857143       2
     0.316503317     0.033165033     0.452857143       3
     0.316404316     0.043164043     0.452857143       2
     0.326304326     0.043263043     0.452857143       3
     0.326205326     0.053262053     0.452857143       2
     0.336105336     0.053361053     0.452857143       3
     0.336006336     0.063360063     0.452857143       2
     0.345906346     0.063459063     0.452857143       3
     0.345807346     0.073458073     0.452857143       2
     0.355707356     0.073557074     0.452857143       3
     0.355608356     0.083556084     0.452857143       2
     0.365508366     0.083655084     0.452857143       3
     0.365409365     0.093654094     0.452857143       2
     0.375309375     0.093753094     0.452857143       3
     0.375210375     0.103752104     0.452857143       2
     0.385110385     0.103851104     0.452857143       3
     0.385011385     0.113850114     0.452857143       2
     0.394911395     0.113949114     0.452857143       3
     0.394812395     0.123948124     0.452857143       2
     0.404712405     0.124047124     0.452857143       3
     0.404613405     0.134046134     0.452857143       2
     0.414513415     0.134145134     0.452857143       3
     0.414414414     0.144144144     0.452857143       2
     0.424314424     0.144243144     0.452857143       3
     0.424215424     0.154242154     0.452857143       2
     0.434115434     0.154341154     0.452857143       3
     0.434016434     0.164340164     0.452857143       2
     0.443916444     0.164439164     0.452857143       3
     0.443817444     0.174438174     0.452857143       2
     0.453717454     0.174537175     0.452857143       3
     0.453618454     0.184536185     0.452857143       2
     0.463518464     0.184635185     0.452857143       3
     0.463419463     0.194634195     0.452857143       2
     0.473319473     0.194733195     0.452857143       3
     0.473220473     0.204732205     0.452857143       2
     0.483120483     0.204831205     0.452857143       3
     0.483021483     0.214830215     0.452857143       2
     0.492921493     0.214929215     0.452857143       3
     0.492822493     0.224928225     0.452857143       2
     0.502722503     0.225027225     0.452857143       3
     0.502623503     0.235026235     0.452857143       2
     0.512523513     0.235125235     0.452857143       3
     0.512424512     0.245124245     0.452857143       2
     0.522324522     0.245223245     0.452857143       3
     0.522225522     0.255222255     0.452857143       2
     0.532125532     0.255321255     0.452857143       3
     0.532026532     0.265320265     0.452857143       2
     0.541926542     0.265419265     0.452857143       3
     0.541827542     0.275418275     0.452857143       2
     0.551727552     0.275517276     0.452857143       3
     0.551628552     0.285516286     0.452857143       2
     0.561528562     0.285615286     0.452857143       3
     0.561429561     0.295614296     0.452857143       2
     0.571329571     0.295713296     0.452857143       3
     0.571230571     0.305712306     0.452857143       2
     0.581130581     0.305811306     0.452857143       3
     0.581031581     0.315810316     0.452857143       2
     0.590931591     0.315909316     0.452857143       3
     0.590832591     0.325908326     0.452857143       2
     0.600732601     0.326007326     0.452857143       3
     0.600633601     0.336006336     0.452857143       2
     0.610533611     0.336105336     0.452857143       3
     0.610434610     0.346104346     0.452857143       2
     0.620334620     0.346203346     0.452857143       3
     0.620235620     0.356202356     0.452857143       2
     0.630135630     0.356301356     0.452857143       3
     0.630036630     0.366300366     0.452857143       2
     0.639936640     0.366399366     0.452857143       3
     0.639837640     0.376398376     0.452857143       2
     0.649737650     0.376497376     0.452857143       3
     0.649638650     0.386496386     0.452857143       2
     0.659538660     0.386595387     0.452857143       3
     0.659439659     0.396594397     0.452857143       2
     0.669339669     0.396693397     0.452857143       3
     0.669240669     0.406692407     0.452857143       2
     0.679140679     0.406791407     0.452857143       3
     0.679041679     0.416790417     0.452857143       2
     0.688941689     0.416889417     0.452857143       3
     0.688842689     0.426888427     0.452857143       2
     0.698742699     0.426987427     0.452857143       3
     0.698643699     0.436986437     0.452857143       2
     0.708543709     0.437085437     0.452857143       3
     0.708444708     0.447084447     0.452857143       2
     0.718344718     0.447183447     0.452857143       3
     0.718245718     0.457182457     0.452857143       2
     0.728145728     0.457281457     0.452857143       3
     0.728046728     0.467280467     0.452857143       2
     0.737946738     0.467379467     0.452857143       3
     0.737847738     0.477378477     0.452857143       2
     0.747747748     0.477477477     0.452857143       3
     0.747648748     0.487476487     0.452857143       2
     0.757548758     0.487575488     0.452857143       3
     0.757449757     0.497574498     0.452857143       2
     0.767349767     0.497673498     0.452857143       3
     0.767250767     0.507672508     0.452857143       2
     0.777150777     0.507771508     0.452857143       3
     0.777051777     0.517770518     0.452857143       2
     0.786951787     0.517869518     0.452857143       3
     0.786852787     0.527868528     0.452857143       2
     0.796752797     0.527967528     0.452857143       3
     0.796653797     0.537966538     0.452857143       2
     0.806553807     0.538065538     0.452857143       3
     0.806454806     0.548064548     0.452857143       2
     0.816354816     0.548163548     0.452857143       3
     0.816255816     0.558162558     0.452857143       2
     0.826155826     0.558261558     0.452857143       3
     0.826056826     0.568260568     0.452857143       2
     0.835956836     0.568359568     0.452857143       3
     0.835857836     0.578358578     0.452857143       2
     0.845757846     0.578457578     0.452857143       3
     0.845658846     0.588456588     0.452857143       2
     0.855558856     0.588555589     0.452857143       3
     0.855459855     0.598554599     0.452857143       2
     0.865359865     0.598653599     0.452857143       3
     0.865260865     0.608652609     0.452857143       2
     0.875160875     0.608751609     0.452857143       3
     0.875061875     0.618750619     0.452857143       2
     0.884961885     0.618849619     0.452857143       3
     0.884862885     0.628848629     0.452857143       2
     0.894762895     0.628947629     0.452857143       3
     0.894663895     0.638946639     0.452857143       2
     0.904563905     0.639045639     0.452857143       3
     0.904464904     0.649044649     0.452857143       2
     0.914364914     0.649143649     0.452857143       3
     0.914265914     0.659142659     0.452857143       2
     0.924165924     0.659241659     0.452857143       3
     0.924066924     0.669240669     0.452857143       2
     0.933966934     0.669339669     0.452857143       3
     0.933867934     0.679338679     0.452857143       2
     0.943767944     0.679437679     0.452857143       3
     0.943668944     0.689436689     0.452857143       2
     0.953568954     0.689535690     0.452857143       3
     0.953469953     0.699534700     0.452857143       2
     0.963369963     0.699633700     0.452857143       3
     0.963270963     0.709632710     0.452857143       2
     0.973170973     0.709731710     0.452857143       3
     0.973071973     0.719730720     0.452857143       2
     0.982971983     0.719829720     0.452857143       3
     0.982872983     0.729828730     0.452857143       2
     0.992772993     0.729927730     0.452857143       3
     0.992673993     0.739926740     0.452857143       2
     0.002574003     0.740025740     0.452857143       3
     0.002475002     0.750024750     0.452857143       2
     0.012375012     0.750123750     0.452857143       3
     0.012276012     0.760122760     0.452857143       2
     0.022176022     0.760221760     0.452857143       3
     0.022077022     0.770220770     0.452857143       2
     0.031977032     0.770319770     0.452857143       3
     0.031878032     0.780318780     0.452857143       2
     0.041778042     0.780417780     0.452857143       3
     0.041679042     0.790416790     0.452857143       2
     0.051579052     0.790515791     0.452857143       3
     0.051480051     0.800514801     0.452857143       2
     0.061380061     0.800613801     0.452857143       3
     0.061281061     0.810612811     0.452857143       2
     0.071181071     0.810711811     0.452857143       3
     0.071082071     0.820710821     0.452857143       2
     0.080982081     0.820809821     0.452857143       3
     0.080883081     0.830808831     0.452857143       2
     0.090783091     0.830907831     0.452857143       3
     0.090684091     0.840906841     0.452857143       2
     0.100584101     0.841005841     0.452857143       3
     0.100485100     0.851004851     0.452857143       2
     0.110385110     0.851103851     0.452857143       3
     0.110286110     0.861102861     0.452857143       2
     0.120186120     0.861201861     0.452857143       3
     0.120087120     0.871200871     0.452857143       2
     0.129987130     0.871299871     0.452857143       3
     0.129888130     0.881298881     0.452857143       2
     0.139788140     0.881397881     0.452857143       3
     0.139689140     0.891396891     0.452857143       2
     0.149589150     0.891495891     0.452857143       3
     0.149490149     0.901494901     0.452857143       2
     0.159390159     0.901593902     0.452857143       3
     0.159291159     0.911592912     0.452857143       2
     0.169191169     0.911691912     0.452857143       3
     0.169092169     0.921690922     0.452857143       2
     0.178992179     0.921789922     0.452857143       3
     0.178893179     0.931788932     0.452857143       2
     0.188793189     0.931887932     0.452857143       3
     0.188694189     0.941886942     0.452857143       2
     0.198594199     0.941985942     0.452857143       3
     0.198495198     0.951984952     0.452857143       2
     0.208395208     0.952083952     0.452857143       3
     0.208296208     0.962082962     0.452857143       2
     0.218196218     0.962181962     0.452857143       3
     0.218097218     0.972180972     0.452857143       2
     0.227997228     0.972279972     0.452857143       3
     0.227898228     0.982278982     0.452857143       2
     0.237798238     0.982377982     0.452857143       3
     0.237699238     0.992376992     0.452857143       2
     0.247599248     0.992475992     0.452857143       3
     0.247500248     0.002475002     0.452857143       2
     0.257400257     0.002574003     0.452857143       3
     0.257301257     0.012573013     0.452857143       2
     0.267201267     0.012672013     0.452857143       3
     0.267102267     0.022671023     0.452857143       2
     0.277002277     0.022770023     0.452857143       3
     0.276903277     0.032769033     0.452857143       2
     0.286803287     0.032868033     0.452857143       3
     0.286704287     0.042867043     0.452857143       2
     0.296604297     0.042966043     0.452857143       3
     0.296505297     0.052965053     0.452857143       2
     0.306405306     0.053064053     0.452857143       3
     0.306306306     0.063063063     0.452857143       2
     0.316206316     0.063162063     0.452857143       3
     0.316107316     0.073161073     0.452857143       2
     0.326007326     0.073260073     0.452857143       3
     0.325908326     0.083259083     0.452857143       2
     0.335808336     0.083358083     0.452857143       3
     0.335709336     0.093357093     0.452857143       2
     0.345609346     0.093456093     0.452857143       3
     0.345510346     0.103455103     0.452857143       2
     0.355410355     0.103554104     0.452857143       3
     0.355311355     0.113553114     0.452857143       2
     0.365211365     0.113652114     0.452857143       3
     0.365112365     0.123651124     0.452857143       2
     0.375012375     0.123750124     0.452857143       3
     0.374913375     0.133749134     0.452857143       2
     0.384813385     0.133848134     0.452857143       3
     0.384714385     0.143847144     0.452857143       2
     0.394614395     0.143946144     0.452857143       3
     0.394515395     0.153945154     0.452857143       2
     0.404415404     0.154044154     0.452857143       3
     0.404316404     0.164043164     0.452857143       2
     0.414216414     0.164142164     0.452857143       3
     0.414117414     0.174141174     0.452857143       2
     0.424017424     0.174240174     0.452857143       3
     0.423918424     0.184239184     0.452857143       2
     0.433818434     0.184338184     0.452857143       3
     0.433719434     0.194337194     0.452857143       2
     0.443619444     0.194436194     0.452857143       3
     0.443520444     0.204435204     0.452857143       2
     0.453420453     0.204534205     0.452857143       3
     0.453321453     0.214533215     0.452857143       2
     0.463221463     0.214632215     0.452857143       3
     0.463122463     0.224631225     0.452857143       2
     0.473022473     0.224730225     0.452857143       3
     0.472923473     0.234729235     0.452857143       2
     0.482823483     0.234828235     0.452857143       3
     0.482724483     0.244827245     0.452857143       2
     0.492624493     0.244926245     0.452857143       3
     0.492525493     0.254925255     0.452857143       2
     0.502425502     0.255024255     0.452857143       3
     0.502326502     0.265023265     0.452857143       2
     0.512226512     0.265122265     0.452857143       3
     0.512127512     0.275121275     0.452857143       2
     0.522027522     0.275220275     0.452857143       3
     0.521928522     0.285219285     0.452857143       2
     0.531828532     0.285318285     0.452857143       3
     0.531729532     0.295317295     0.452857143       2
     0.541629542     0.295416295     0.452857143       3
     0.541530542     0.305415305     0.452857143       2
     0.551430551     0.305514306     0.452857143       3
     0.551331551     0.315513316     0.452857143       2
     0.561231561     0.315612316     0.452857143       3
     0.561132561     0.325611326     0.452857143       2
     0.571032571     0.325710326     0.452857143       3
     0.570933571     0.335709336     0.452857143       2
     0.580833581     0.335808336     0.452857143       3
     0.580734581     0.345807346     0.452857143       2
     0.590634591     0.345906346     0.452857143       3
     0.590535591     0.355905356     0.452857143       2
     0.600435600     0.356004356     0.452857143       3
     0.600336600     0.366003366     0.452857143       2
     0.610236610     0.366102366     0.452857143       3
     0.610137610     0.376101376     0.452857143       2
     0.620037620     0.376200376     0.452857143       3
     0.619938620     0.386199386     0.452857143       2
     0.629838630     0.386298386     0.452857143       3
     0.629739630     0.396297396     0.452857143       2
     0.639639640     0.396396396     0.452857143       3
     0.639540640     0.406395406     0.452857143       2
     0.649440649     0.406494406     0.452857143       3
     0.649341649     0.416493416     0.452857143       2
     0.659241659     0.416592417     0.452857143       3
     0.659142659     0.426591427     0.452857143       2
     0.669042669     0.426690427     0.452857143       3
     0.668943669     0.436689437     0.452857143       2
     0.678843679     0.436788437     0.452857143       3
     0.678744679     0.446787447     0.452857143       2
     0.688644689     0.446886447     0.452857143       3
     0.688545689     0.456885457     0.452857143       2
     0.698445698     0.456984457     0.452857143       3
     0.698346698     0.466983467     0.452857143       2
     0.708246708     0.467082467     0.452857143       3
     0.708147708     0.477081477     0.452857143       2
     0.718047718     0.477180477     0.452857143       3
     0.717948718     0.487179487     0.452857143       2
     0.727848728     0.487278487     0.452857143       3
     0.727749728     0.497277497     0.452857143       2
     0.737649738     0.497376497     0.452857143       3
     0.737550738     0.507375507     0.452857143       2
     0.747450747     0.507474507     0.452857143       3
     0.747351747     0.517473517     0.452857143       2
     0.757251757     0.517572518     0.452857143       3
     0.757152757     0.527571528     0.452857143       2
     0.767052767     0.527670528     0.452857143       3
     0.766953767     0.537669538     0.452857143       2
     0.776853777     0.537768538     0.452857143       3
     0.776754777     0.547767548     0.452857143       2
     0.786654787     0.547866548     0.452857143       3
     0.786555787     0.557865558     0.452857143       2
     0.796455796     0.557964558     0.452857143       3
     0.796356796     0.567963568     0.452857143       2
     0.806256806     0.568062568     0.452857143       3
     0.806157806     0.578061578     0.452857143       2
     0.816057816     0.578160578     0.452857143       3
     0.815958816     0.588159588     0.452857143       2
     0.825858826     0.588258588     0.452857143       3
     0.825759826     0.598257598     0.452857143       2
     0.835659836     0.598356598     0.452857143       3
     0.835560836     0.608355608     0.452857143       2
     0.845460845     0.608454608     0.452857143       3
     0.845361845     0.618453618     0.452857143       2
     0.855261855     0.618552619     0.452857143       3
     0.855162855     0.628551629     0.452857143       2
     0.865062865     0.628650629     0.452857143       3
     0.864963865     0.638649639     0.452857143       2
     0.874863875     0.638748639     0.452857143       3
     0.874764875     0.648747649     0.452857143       2
     0.884664885     0.648846649     0.452857143       3
     0.884565885     0.658845659     0.452857143       2
     0.894465894     0.658944659     0.452857143       3
     0.894366894     0.668943669     0.452857143       2
     0.904266904     0.669042669     0.452857143       3
     0.904167904     0.679041679     0.452857143       2
     0.914067914     0.679140679     0.452857143       3
     0.913968914     0.689139689     0.452857143       2
     0.923868924     0.689238689     0.452857143       3
     0.923769924     0.699237699     0.452857143       2
     0.933669934     0.699336699     0.452857143       3
     0.933570934     0.709335709     0.452857143       2
     0.943470943     0.709434709     0.452857143       3
     0.943371943     0.719433719     0.452857143       2
     0.953271953     0.719532720     0.452857143       3
     0.953172953     0.729531730     0.452857143       2
     0.963072963     0.729630730     0.452857143       3
     0.962973963     0.739629740     0.452857143       2
     0.972873973     0.739728740     0.452857143       3
     0.972774973     0.749727750     0.452857143       2
     0.982674983     0.749826750     0.452857143       3
     0.982575983     0.759825760     0.452857143       2
     0.992475992     0.759924760     0.452857143       3
     0.992376992     0.769923770     0.452857143       2
     0.002277002     0.770022770     0.452857143       3
     0.002178002     0.780021780     0.452857143       2
     0.012078012     0.780120780     0.452857143       3
     0.011979012     0.790119790     0.452857143       2
     0.021879022     0.790218790     0.452857143       3
     0.021780022     0.800217800     0.452857143       2
     0.031680032     0.800316800     0.452857143       3
     0.031581032     0.810315810     0.452857143       2
     0.041481041     0.810414810     0.452857143       3
     0.041382041     0.820413820     0.452857143       2
     0.051282051     0.820512821     0.452857143       3
     0.051183051     0.830511831     0.452857143       2
     0.061083061     0.830610831     0.452857143       3
     0.060984061     0.840609841     0.452857143       2
     0.070884071     0.840708841     0.452857143       3
     0.070785071     0.850707851     0.452857143       2
     0.080685081     0.850806851     0.452857143       3
     0.080586081     0.860805861     0.452857143       2
     0.090486090     0.860904861     0.452857143       3
     0.090387090     0.870903871     0.452857143       2
     0.100287100     0.871002871     0.452857143       3
     0.100188100     0.881001881     0.452857143       2
     0.110088110     0.881100881     0.452857143       3
     0.109989110     0.891099891     0.452857143       2
     0.119889120     0.891198891     0.452857143       3
     0.119790120     0.901197901     0.452857143       2
     0.129690130     0.901296901     0.452857143       3
     0.129591130     0.911295911     0.452857143       2
     0.139491139     0.911394911     0.452857143       3
     0.139392139     0.921393921     0.452857143       2
     0.149292149     0.921492921     0.452857143       3
     0.149193149     0.931491931     0.452857143       2
     0.159093159     0.931590932     0.452857143       3
     0.158994159     0.941589942     0.452857143       2
     0.168894169     0.941688942     0.452857143       3
     0.168795169     0.951687952     0.452857143       2
     0.178695179     0.951786952     0.452857143       3
     0.178596179     0.961785962     0.452857143       2
     0.188496188     0.961884962     0.452857143       3
     0.188397188     0.971883972     0.452857143       2
     0.198297198     0.971982972     0.452857143       3
     0.198198198     0.981981982     0.452857143       2
     0.208098208     0.982080982     0.452857143       3
     0.207999208     0.992079992     0.452857143       2
     0.217899218     0.992178992     0.452857143       3
     0.217800218     0.002178002     0.452857143       2
     0.227700228     0.002277002     0.452857143       3
     0.227601228     0.012276012     0.452857143       2
     0.237501238     0.012375012     0.452857143       3
     0.237402237     0.022374022     0.452857143       2
     0.247302247     0.022473022     0.452857143       3
     0.247203247     0.032472032     0.452857143       2
     0.257103257     0.032571033     0.452857143       3
     0.257004257     0.042570043     0.452857143       2
     0.266904267     0.042669043     0.452857143       3
     0.266805267     0.052668053     0.452857143       2
     0.276705277     0.052767053     0.452857143       3
     0.276606277     0.062766063     0.452857143       2
     0.286506287     0.062865063     0.452857143       3
     0.286407286     0.072864073     0.452857143       2
     0.296307296     0.072963073     0.452857143       3
     0.296208296     0.082962083     0.452857143       2
     0.306108306     0.083061083     0.452857143       3
     0.306009306     0.093060093     0.452857143       2
     0.315909316     0.093159093     0.452857143       3
     0.315810316     0.103158103     0.452857143       2
     0.325710326     0.103257103     0.452857143       3
     0.325611326     0.113256113     0.452857143       2
     0.335511336     0.113355113     0.452857143       3
     0.335412335     0.123354123     0.452857143       2
     0.345312345     0.123453123     0.452857143       3
     0.345213345     0.133452133     0.452857143       2
     0.355113355     0.133551134     0.452857143       3
     0.355014355     0.143550144     0.452857143       2
     0.364914365     0.143649144     0.452857143       3
     0.364815365     0.153648154     0.452857143       2
     0.374715375     0.153747154     0.452857143       3
     0.374616375     0.163746164     0.452857143       2
     0.384516385     0.163845164     0.452857143       3
     0.384417384     0.173844174     0.452857143       2
     0.394317394     0.173943174     0.452857143       3
     0.394218394     0.183942184     0.452857143       2
     0.404118404     0.184041184     0.452857143       3
     0.404019404     0.194040194     0.452857143       2
     0.413919414     0.194139194     0.452857143       3
     0.413820414     0.204138204     0.452857143       2
     0.423720424     0.204237204     0.452857143       3
     0.423621424     0.214236214     0.452857143       2
     0.433521434     0.214335214     0.452857143       3
     0.433422433     0.224334224     0.452857143       2
     0.443322443     0.224433224     0.452857143       3
     0.443223443     0.234432234     0.452857143       2
     0.453123453     0.234531235     0.452857143       3
     0.453024453     0.244530245     0.452857143       2
     0.462924463     0.244629245     0.452857143       3
     0.462825463     0.254628255     0.452857143       2
     0.472725473     0.254727255     0.452857143       3
     0.472626473     0.264726265     0.452857143       2
     0.482526483     0.264825265     0.452857143       3
     0.482427482     0.274824275     0.452857143       2
     0.492327492     0.274923275     0.452857143       3
     0.492228492     0.284922285     0.452857143       2
     0.502128502     0.285021285     0.452857143       3
     0.502029502     0.295020295     0.452857143       2
     0.511929512     0.295119295     0.452857143       3
     0.511830512     0.305118305     0.452857143       2
     0.521730522     0.305217305     0.452857143       3
     0.521631522     0.315216315     0.452857143       2
     0.531531532     0.315315315     0.452857143       3
     0.531432531     0.325314325     0.452857143       2
     0.541332541     0.325413325     0.452857143       3
     0.541233541     0.335412335     0.452857143       2
     0.551133551     0.335511336     0.452857143       3
     0.551034551     0.345510346     0.452857143       2
     0.560934561     0.345609346     0.452857143       3
     0.560835561     0.355608356     0.452857143       2
     0.570735571     0.355707356     0.452857143       3
     0.570636571     0.365706366     0.452857143       2
     0.580536581     0.365805366     0.452857143       3
     0.580437580     0.375804376     0.452857143       2
     0.590337590     0.375903376     0.452857143       3
     0.590238590     0.385902386     0.452857143       2
     0.600138600     0.386001386     0.452857143       3
     0.600039600     0.396000396     0.452857143       2
     0.609939610     0.396099396     0.452857143       3
     0.609840610     0.406098406     0.452857143       2
     0.619740620     0.406197406     0.452857143       3
     0.619641620     0.416196416     0.452857143       2
     0.629541630     0.416295416     0.452857143       3
     0.629442629     0.426294426     0.452857143       2
     0.639342639     0.426393426     0.452857143       3
     0.639243639     0.436392436     0.452857143       2
     0.649143649     0.436491436     0.452857143       3
     0.649044649     0.446490446     0.452857143       2
     0.658944659     0.446589447     0.452857143       3
     0.658845659     0.456588457     0.452857143       2
     0.668745669     0.456687457     0.452857143       3
     0.668646669     0.466686467     0.452857143       2
     0.678546679     0.466785467     0.452857143       3
     0.678447678     0.476784477     0.452857143       2
     0.688347688     0.476883477     0.452857143       3
     0.688248688     0.486882487     0.452857143       2
     0.698148698     0.486981487     0.452857143       3
     0.698049698     0.496980497     0.452857143       2
     0.707949708     0.497079497     0.452857143       3
     0.707850708     0.507078507     0.452857143       2
     0.717750718     0.507177507     0.452857143       3
     0.717651718     0.517176517     0.452857143       2
     0.727551728     0.517275517     0.452857143       3
     0.727452727     0.527274527     0.452857143       2
     0.737352737     0.527373527     0.452857143       3
     0.737253737     0.537372537     0.452857143       2
     0.747153747     0.537471537     0.452857143       3
     0.747054747     0.547470547     0.452857143       2
     0.756954757     0.547569548     0.452857143       3
     0.756855757     0.557568558     0.452857143       2
     0.766755767     0.557667558     0.452857143       3
     0.766656767     0.567666568     0.452857143       2
     0.776556777     0.567765568     0.452857143       3
     0.776457776     0.577764578     0.452857143       2
     0.786357786     0.577863578     0.452857143       3
     0.786258786     0.587862588     0.452857143       2
     0.796158796     0.587961588     0.452857143       3
     0.796059796     0.597960598     0.452857143       2
     0.805959806     0.598059598     0.452857143       3
     0.805860806     0.608058608     0.452857143       2
     0.815760816     0.608157608     0.452857143       3
     0.815661816     0.618156618     0.452857143       2
     0.825561826     0.618255618     0.452857143       3
     0.825462825     0.628254628     0.452857143       2
     0.835362835     0.628353628     0.452857143       3
     0.835263835     0.638352638     0.452857143       2
     0.845163845     0.638451638     0.452857143       3
     0.845064845     0.648450648     0.452857143       2
     0.854964855     0.648549649     0.452857143       3
     0.854865855     0.658548659     0.452857143       2
     0.864765865     0.658647659     0.452857143       3
     0.864666865     0.668646669     0.452857143       2
     0.874566875     0.668745669     0.452857143       3
     0.874467874     0.678744679     0.452857143       2
     0.884367884     0.678843679     0.452857143       3
     0.884268884     0.688842689     0.452857143       2
     0.894168894     0.688941689     0.452857143       3
     0.894069894     0.698940699     0.452857143       2
     0.903969904     0.699039699     0.452857143       3
     0.903870904     0.709038709     0.452857143       2
     0.913770914     0.709137709     0.452857143       3
     0.913671914     0.719136719     0.452857143       2
     0.923571924     0.719235719     0.452857143       3
     0.923472923     0.729234729     0.452857143       2
     0.933372933     0.729333729     0.452857143       3
     0.933273933     0.739332739     0.452857143       2
     0.943173943     0.739431739     0.452857143       3
     0.943074943     0.749430749     0.452857143       2
     0.952974953     0.749529750     0.452857143       3
     0.952875953     0.759528760     0.452857143       2
     0.962775963     0.759627760     0.452857143       3
     0.962676963     0.769626770     0.452857143       2
     0.972576973     0.769725770     0.452857143       3
     0.972477972     0.779724780     0.452857143       2
     0.982377982     0.779823780     0.452857143       3
     0.982278982     0.789822790     0.452857143       2
     0.992178992     0.789921790     0.452857143       3
     0.992079992     0.799920800     0.452857143       2
     0.001980002     0.800019800     0.452857143       3
     0.001881002     0.810018810     0.452857143       2
     0.011781012     0.810117810     0.452857143       3
     0.011682012     0.820116820     0.452857143       2
     0.021582022     0.820215820     0.452857143       3
     0.021483021     0.830214830     0.452857143       2
     0.031383031     0.830313830     0.452857143       3
     0.031284031     0.840312840     0.452857143       2
     0.041184041     0.840411840     0.452857143       3
     0.041085041     0.850410850     0.452857143       2
     0.050985051     0.850509851     0.452857143       3
     0.050886051     0.860508861     0.452857143       2
     0.060786061     0.860607861     0.452857143       3
     0.060687061     0.870606871     0.452857143       2
     0.070587071     0.870705871     0.452857143       3
     0.070488070     0.880704881     0.452857143       2
     0.080388080     0.880803881     0.452857143       3
     0.080289080     0.890802891     0.452857143       2
     0.090189090     0.890901891     0.452857143       3
     0.090090090     0.900900901     0.452857143       2
     0.099990100     0.900999901     0.452857143       3
     0.099891100     0.910998911     0.452857143       2
     0.109791110     0.911097911     0.452857143       3
     0.109692110     0.921096921     0.452857143       2
     0.119592120     0.921195921     0.452857143       3
     0.119493119     0.931194931     0.452857143       2
     0.129393129     0.931293931     0.452857143       3
     0.129294129     0.941292941     0.452857143       2
     0.139194139     0.941391941     0.452857143       3
     0.139095139     0.951390951     0.452857143       2
     0.148995149     0.951489951     0.452857143       3
     0.148896149     0.961488961     0.452857143       2
     0.158796159     0.961587962     0.452857143       3
     0.158697159     0.971586972     0.452857143       2
     0.168597169     0.971685972     0.452857143       3
     0.168498168     0.981684982     0.452857143       2
     0.178398178     0.981783982     0.452857143       3
     0.178299178     0.991782992     0.452857143       2
     0.188199188     0.991881992     0.452857143       3
     0.188100188     0.001881002     0.452857143       2
     0.198000198     0.001980002     0.452857143       3
     0.197901198     0.011979012     0.452857143       2
     0.207801208     0.012078012     0.452857143       3
     0.207702208     0.022077022     0.452857143       2
     0.217602218     0.022176022     0.452857143       3
     0.217503218     0.032175032     0.452857143       2
     0.227403227     0.032274032     0.452857143       3
     0.227304227     0.042273042     0.452857143       2
     0.237204237     0.042372042     0.452857143       3
     0.237105237     0.052371052     0.452857143       2
     0.247005247     0.052470052     0.452857143       3
     0.246906247     0.062469062     0.452857143       2
     0.256806257     0.062568063     0.452857143       3
     0.256707257     0.072567073     0.452857143       2
     0.266607267     0.072666073     0.452857143       3
     0.266508267     0.082665083     0.452857143       2
     0.276408276     0.082764083     0.452857143       3
     0.276309276     0.092763093     0.452857143       2
     0.286209286     0.092862093     0.452857143       3
     0.286110286     0.102861103     0.452857143       2
     0.296010296     0.102960103     0.452857143       3
     0.295911296     0.112959113     0.452857143       2
     0.305811306     0.113058113     0.452857143       3
     0.305712306     0.123057123     0.452857143       2
     0.315612316     0.123156123     0.452857143       3
     0.315513316     0.133155133     0.452857143       2
     0.325413325     0.133254133     0.452857143       3
     0.325314325     0.143253143     0.452857143       2
     0.335214335     0.143352143     0.452857143       3
     0.335115335     0.153351153     0.452857143       2
     0.345015345     0.153450153     0.452857143       3
     0.344916345     0.163449163     0.452857143       2
     0.354816355     0.163548164     0.452857143       3
     0.354717355     0.173547174     0.452857143       2
     0.364617365     0.173646174     0.452857143       3
     0.364518365     0.183645184     0.452857143       2
     0.374418374     0.183744184     0.452857143       3
     0.374319374     0.193743194     0.452857143       2
     0.384219384     0.193842194     0.452857143       3
     0.384120384     0.203841204     0.452857143       2
     0.394020394     0.203940204     0.452857143       3
     0.393921394     0.213939214     0.452857143       2
     0.403821404     0.214038214     0.452857143       3
     0.403722404     0.224037224     0.452857143       2
     0.413622414     0.224136224     0.452857143       3
     0.413523414     0.234135234     0.452857143       2
     0.423423423     0.234234234     0.452857143       3
     0.423324423     0.244233244     0.452857143       2
     0.433224433     0.244332244     0.452857143       3
     0.433125433     0.254331254     0.452857143       2
     0.443025443     0.254430254     0.452857143       3
     0.442926443     0.264429264     0.452857143       2
     0.452826453     0.264528265     0.452857143       3
     0.452727453     0.274527275     0.452857143       2
     0.462627463     0.274626275     0.452857143       3
     0.462528463     0.284625285     0.452857143       2
     0.472428472     0.284724285     0.452857143       3
     0.472329472     0.294723295     0.452857143       2
     0.482229482     0.294822295     0.452857143       3
     0.482130482     0.304821305     0.452857143       2
     0.492030492     0.304920305     0.452857143       3
     0.491931492     0.314919315     0.452857143       2
     0.501831502     0.315018315     0.452857143       3
     0.501732502     0.325017325     0.452857143       2
     0.511632512     0.325116325     0.452857143       3
     0.511533512     0.335115335     0.452857143       2
     0.521433521     0.335214335     0.452857143       3
     0.521334521     0.345213345     0.452857143       2
     0.531234531     0.345312345     0.452857143       3
     0.531135531     0.355311355     0.452857143       2
     0.541035541     0.355410355     0.452857143       3
     0.540936541     0.365409365     0.452857143       2
     0.550836551     0.365508366     0.452857143       3
     0.550737551     0.375507376     0.452857143       2
     0.560637561     0.375606376     0.452857143       3
     0.560538561     0.385605386     0.452857143       2
     0.570438570     0.385704386     0.452857143       3
     0.570339570     0.395703396     0.452857143       2
     0.580239580     0.395802396     0.452857143       3
     0.580140580     0.405801406     0.452857143       2
     0.590040590     0.405900406     0.452857143       3
     0.589941590     0.415899416     0.452857143       2
     0.599841600     0.415998416     0.452857143       3
     0.599742600     0.425997426     0.452857143       2
     0.609642610     0.426096426     0.452857143       3
     0.609543610     0.436095436     0.452857143       2
     0.619443619     0.436194436     0.452857143       3
     0.619344619     0.446193446     0.452857143       2
     0.629244629     0.446292446     0.452857143       3
     0.629145629     0.456291456     0.452857143       2
     0.639045639     0.456390456     0.452857143       3
     0.638946639     0.466389466     0.452857143       2
     0.648846649     0.466488466     0.452857143       3
     0.648747649     0.476487476     0.452857143       2
     0.658647659     0.476586477     0.452857143       3
     0.658548659     0.486585487     0.452857143       2
     0.668448668     0.486684487     0.452857143       3
     0.668349668     0.496683497     0.452857143       2
     0.678249678     0.496782497     0.452857143       3
     0.678150678     0.506781507     0.452857143       2
     0.688050688     0.506880507     0.452857143       3
     0.687951688     0.516879517     0.452857143       2
     0.697851698     0.516978517     0.452857143       3
     0.697752698     0.526977527     0.452857143       2
     0.707652708     0.527076527     0.452857143       3
     0.707553708     0.537075537     0.452857143       2
     0.717453717     0.537174537     0.452857143       3
     0.717354717     0.547173547     0.452857143       2
     0.727254727     0.547272547     0.452857143       3
     0.727155727     0.557271557     0.452857143       2
     0.737055737     0.557370557     0.452857143       3
     0.736956737     0.567369567     0.452857143       2
     0.746856747     0.567468567     0.452857143       3
     0.746757747     0.577467577     0.452857143       2
     0.756657757     0.577566578     0.452857143       3
     0.756558757     0.587565588     0.452857143       2
     0.766458766     0.587664588     0.452857143       3
     0.766359766     0.597663598     0.452857143       2
     0.776259776     0.597762598     0.452857143       3
     0.776160776     0.607761608     0.452857143       2
     0.786060786     0.607860608     0.452857143       3
     0.785961786     0.617859618     0.452857143       2
     0.795861796     0.617958618     0.452857143       3
     0.795762796     0.627957628     0.452857143       2
     0.805662806     0.628056628     0.452857143       3
     0.805563806     0.638055638     0.452857143       2
     0.815463815     0.638154638     0.452857143       3
     0.815364815     0.648153648     0.452857143       2
     0.825264825     0.648252648     0.452857143       3
     0.825165825     0.658251658     0.452857143       2
     0.835065835     0.658350658     0.452857143       3
     0.834966835     0.668349668     0.452857143       2
     0.844866845     0.668448668     0.452857143       3
     0.844767845     0.678447678     0.452857143       2
     0.854667855     0.678546679     0.452857143       3
     0.854568855     0.688545689     0.452857143       2
     0.864468864     0.688644689     0.452857143       3
     0.864369864     0.698643699     0.452857143       2
     0.874269874     0.698742699     0.452857143       3
     0.874170874     0.708741709     0.452857143       2
     0.884070884     0.708840709     0.452857143       3
     0.883971884     0.718839719     0.452857143       2
     0.893871894     0.718938719     0.452857143       3
     0.893772894     0.728937729     0.452857143       2
     0.903672904     0.729036729     0.452857143       3
     0.903573904     0.739035739     0.452857143       2
     0.913473913     0.739134739     0.452857143       3
     0.913374913     0.749133749     0.452857143       2
     0.923274923     0.749232749     0.452857143       3
     0.923175923     0.759231759     0.452857143       2
     0.933075933     0.759330759     0.452857143       3
     0.932976933     0.769329769     0.452857143       2
     0.942876943     0.769428769     0.452857143       3
     0.942777943     0.779427779     0.452857143       2
     0.952677953     0.779526780     0.452857143       3
     0.952578953     0.789525790     0.452857143       2
     0.962478962     0.789624790     0.452857143       3
     0.962379962     0.799623800     0.452857143       2
     0.972279972     0.799722800     0.452857143       3
     0.972180972     0.809721810     0.452857143       2
     0.982080982     0.809820810     0.452857143       3
     0.981981982     0.819819820     0.452857143       2
     0.991881992     0.819918820     0.452857143       3
     0.991782992     0.829917830     0.452857143       2
     0.001683002     0.830016830     0.452857143       3
     0.001584002     0.840015840     0.452857143       2
     0.011484011     0.840114840     0.452857143       3
     0.011385011     0.850113850     0.452857143       2
     0.021285021     0.850212850     0.452857143       3
     0.021186021     0.860211860     0.452857143       2
     0.031086031     0.860310860     0.452857143       3
     0.030987031     0.870309870     0.452857143       2
     0.040887041     0.870408870     0.452857143       3
     0.040788041     0.880407880     0.452857143       2
     0.050688051     0.880506881     0.452857143       3
     0.050589051     0.890505891     0.452857143       2
     0.060489060     0.890604891     0.452857143       3
     0.060390060     0.900603901     0.452857143       2
     0.070290070     0.900702901     0.452857143       3
     0.070191070     0.910701911     0.452857143       2
     0.080091080     0.910800911     0.452857143       3
     0.079992080     0.920799921     0.452857143       2
     0.089892090     0.920898921     0.452857143       3
     0.089793090     0.930897931     0.452857143       2
     0.099693100     0.930996931     0.452857143       3
     0.099594100     0.940995941     0.452857143       2
     0.109494109     0.941094941     0.452857143       3
     0.109395109     0.951093951     0.452857143       2
     0.119295119     0.951192951     0.452857143       3
     0.119196119     0.961191961     0.452857143       2
     0.129096129     0.961290961     0.452857143       3
     0.128997129     0.971289971     0.452857143       2
     0.138897139     0.971388971     0.452857143       3
     0.138798139     0.981387981     0.452857143       2
     0.148698149     0.981486981     0.452857143       3
     0.148599149     0.991485991     0.452857143       2
     0.158499158     0.991584992     0.452857143       3
     0.158400158     0.001584002     0.452857143       2
     0.168300168     0.001683002     0.452857143       3
     0.168201168     0.011682012     0.452857143       2
     0.178101178     0.011781012     0.452857143       3
     0.178002178     0.021780022     0.452857143       2
     0.187902188     0.021879022     0.452857143       3
     0.187803188     0.031878032     0.452857143       2
     0.197703198     0.031977032     0.452857143       3
     0.197604198     0.041976042     0.452857143       2
     0.207504208     0.042075042     0.452857143       3
     0.207405207     0.052074052     0.452857143       2
     0.217305217     0.052173052     0.452857143       3
     0.217206217     0.062172062     0.452857143       2
     0.227106227     0.062271062     0.452857143       3
     0.227007227     0.072270072     0.452857143       2
     0.236907237     0.072369072     0.452857143       3
     0.236808237     0.082368082     0.452857143       2
     0.246708247     0.082467082     0.452857143       3
     0.246609247     0.092466092     0.452857143       2
     0.256509257     0.092565093     0.452857143       3
     0.256410256     0.102564103     0.452857143       2
     0.266310266     0.102663103     0.452857143       3
     0.266211266     0.112662113     0.452857143       2
     0.276111276     0.112761113     0.452857143       3
     0.276012276     0.122760123     0.452857143       2
     0.285912286     0.122859123     0.452857143       3
     0.285813286     0.132858133     0.452857143       2
     0.295713296     0.132957133     0.452857143       3
     0.295614296     0.142956143     0.452857143       2
     0.305514306     0.143055143     0.452857143       3
     0.305415305     0.153054153     0.452857143       2
     0.315315315     0.153153153     0.452857143       3
     0.315216315     0.163152163     0.452857143       2
     0.325116325     0.163251163     0.452857143       3
     0.325017325     0.173250173     0.452857143       2
     0.334917335     0.173349173     0.452857143       3
     0.334818335     0.183348183     0.452857143       2
     0.344718345     0.183447183     0.452857143       3
     0.344619345     0.193446193     0.452857143       2
     0.354519355     0.193545194     0.452857143       3
     0.354420354     0.203544204     0.452857143       2
     0.364320364     0.203643204     0.452857143       3
     0.364221364     0.213642214     0.452857143       2
     0.374121374     0.213741214     0.452857143       3
     0.374022374     0.223740224     0.452857143       2
     0.383922384     0.223839224     0.452857143       3
     0.383823384     0.233838234     0.452857143       2
     0.393723394     0.233937234     0.452857143       3
     0.393624394     0.243936244     0.452857143       2
     0.403524404     0.244035244     0.452857143       3
     0.403425403     0.254034254     0.452857143       2
     0.413325413     0.254133254     0.452857143       3
     0.413226413     0.264132264     0.452857143       2
     0.423126423     0.264231264     0.452857143       3
     0.423027423     0.274230274     0.452857143       2
     0.432927433     0.274329274     0.452857143       3
     0.432828433     0.284328284     0.452857143       2
     0.442728443     0.284427284     0.452857143       3
     0.442629443     0.294426294     0.452857143       2
     0.452529453     0.294525295     0.452857143       3
     0.452430452     0.304524305     0.452857143       2
     0.462330462     0.304623305     0.452857143       3
     0.462231462     0.314622315     0.452857143       2
     0.472131472     0.314721315     0.452857143       3
     0.472032472     0.324720325     0.452857143       2
     0.481932482     0.324819325     0.452857143       3
     0.481833482     0.334818335     0.452857143       2
     0.491733492     0.334917335     0.452857143       3
     0.491634492     0.344916345     0.452857143       2
     0.501534502     0.345015345     0.452857143       3
     0.501435501     0.355014355     0.452857143       2
     0.511335511     0.355113355     0.452857143       3
     0.511236511     0.365112365     0.452857143       2
     0.521136521     0.365211365     0.452857143       3
     0.521037521     0.375210375     0.452857143       2
     0.530937531     0.375309375     0.452857143       3
     0.530838531     0.385308385     0.452857143       2
     0.540738541     0.385407385     0.452857143       3
     0.540639541     0.395406395     0.452857143       2
     0.550539551     0.395505396     0.452857143       3
     0.550440550     0.405504406     0.452857143       2
     0.560340560     0.405603406     0.452857143       3
     0.560241560     0.415602416     0.452857143       2
     0.570141570     0.415701416     0.452857143       3
     0.570042570     0.425700426     0.452857143       2
     0.579942580     0.425799426     0.452857143       3
     0.579843580     0.435798436     0.452857143       2
     0.589743590     0.435897436     0.452857143       3
     0.589644590     0.445896446     0.452857143       2
     0.599544600     0.445995446     0.452857143       3
     0.599445599     0.455994456     0.452857143       2
     0.609345609     0.456093456     0.452857143       3
     0.609246609     0.466092466     0.452857143       2
     0.619146619     0.466191466     0.452857143       3
     0.619047619     0.476190476     0.452857143       2
     0.628947629     0.476289476     0.452857143       3
     0.628848629     0.486288486     0.452857143       2
     0.638748639     0.486387486     0.452857143       3
     0.638649639     0.496386496     0.452857143       2
     0.648549649     0.496485496     0.452857143       3
     0.648450648     0.506484506     0.452857143       2
     0.658350658     0.506583507     0.452857143       3
     0.658251658     0.516582517     0.452857143       2
     0.668151668     0.516681517     0.452857143       3
     0.668052668     0.526680527     0.452857143       2
     0.677952678     0.526779527     0.452857143       3
     0.677853678     0.536778537     0.452857143       2
     0.687753688     0.536877537     0.452857143       3
     0.687654688     0.546876547     0.452857143       2
     0.697554698     0.546975547     0.452857143       3
     0.697455697     0.556974557     0.452857143       2
     0.707355707     0.557073557     0.452857143       3
     0.707256707     0.567072567     0.452857143       2
     0.717156717     0.567171567     0.452857143       3
     0.717057717     0.577170577     0.452857143       2
     0.726957727     0.577269577     0.452857143       3
     0.726858727     0.587268587     0.452857143       2
     0.736758737     0.587367587     0.452857143       3
     0.736659737     0.597366597     0.452857143       2
     0.746559747     0.597465597     0.452857143       3
     0.746460746     0.607464607     0.452857143       2
     0.756360756     0.607563608     0.452857143       3
     0.756261756     0.617562618     0.452857143       2
     0.766161766     0.617661618     0.452857143       3
     0.766062766     0.627660628     0.452857143       2
     0.775962776     0.627759628     0.452857143       3
     0.775863776     0.637758638     0.452857143       2
     0.785763786     0.637857638     0.452857143       3
     0.785664786     0.647856648     0.452857143       2
     0.795564796     0.647955648     0.452857143       3
     0.795465795     0.657954658     0.452857143       2
     0.805365805     0.658053658     0.452857143       3
     0.805266805     0.668052668     0.452857143       2
     0.815166815     0.668151668     0.452857143       3
     0.815067815     0.678150678     0.452857143       2
     0.824967825     0.678249678     0.452857143       3
     0.824868825     0.688248688     0.452857143       2
     0.834768835     0.688347688     0.452857143       3
     0.834669835     0.698346698     0.452857143       2
     0.844569845     0.698445698     0.452857143       3
     0.844470844     0.708444708     0.452857143       2
     0.854370854     0.708543709     0.452857143       3
     0.854271854     0.718542719     0.452857143       2
     0.864171864     0.718641719     0.452857143       3
     0.864072864     0.728640729     0.452857143       2
     0.873972874     0.728739729     0.452857143       3
     0.873873874     0.738738739     0.452857143       2
     0.883773884     0.738837739     0.452857143       3
     0.883674884     0.748836749     0.452857143       2
     0.893574894     0.748935749     0.452857143       3
     0.893475893     0.758934759     0.452857143       2
     0.903375903     0.759033759     0.452857143       3
     0.903276903     0.769032769     0.452857143       2
     0.913176913     0.769131769     0.452857143       3
     0.913077913     0.779130779     0.452857143       2
     0.922977923     0.779229779     0.452857143       3
     0.922878923     0.789228789     0.452857143       2
     0.932778933     0.789327789     0.452857143       3
     0.932679933     0.799326799     0.452857143       2
     0.942579943     0.799425799     0.452857143       3
     0.942480942     0.809424809     0.452857143       2
     0.952380952     0.809523810     0.452857143       3
     0.952281952     0.819522820     0.452857143       2
     0.962181962     0.819621820     0.452857143       3
     0.962082962     0.829620830     0.452857143       2
     0.971982972     0.829719830     0.452857143       3
     0.971883972     0.839718840     0.452857143       2
     0.981783982     0.839817840     0.452857143       3
     0.981684982     0.849816850     0.452857143       2
     0.991584992     0.849915850     0.452857143       3
     0.991485991     0.859914860     0.452857143       2
     0.001386001     0.860013860     0.452857143       3
     0.001287001     0.870012870     0.452857143       2
     0.011187011     0.870111870     0.452857143       3
     0.011088011     0.880110880     0.452857143       2
     0.020988021     0.880209880     0.452857143       3
     0.020889021     0.890208890     0.452857143       2
     0.030789031     0.890307890     0.452857143       3
     0.030690031     0.900306900     0.452857143       2
     0.040590041     0.900405900     0.452857143       3
     0.040491040     0.910404910     0.452857143       2
     0.050391050     0.910503911     0.452857143       3
     0.050292050     0.920502921     0.452857143       2
     0.060192060     0.920601921     0.452857143       3
     0.060093060     0.930600931     0.452857143       2
     0.069993070     0.930699931     0.452857143       3
     0.069894070     0.940698941     0.452857143       2
     0.079794080     0.940797941     0.452857143       3
     0.079695080     0.950796951     0.452857143       2
     0.089595090     0.950895951     0.452857143       3
     0.089496089     0.960894961     0.452857143       2
     0.099396099     0.960993961     0.452857143       3
     0.099297099     0.970992971     0.452857143       2
     0.109197109     0.971091971     0.452857143       3
     0.109098109     0.981090981     0.452857143       2
     0.118998119     0.981189981     0.452857143       3
     0.118899119     0.991188991     0.452857143       2
     0.128799129     0.991287991     0.452857143       3
     0.128700129     0.001287001     0.452857143       2
     0.138600139     0.001386001     0.452857143       3
     0.138501139     0.011385011     0.452857143       2
     0.148401148     0.011484011     0.452857143       3
     0.148302148     0.021483021     0.452857143       2
     0.158202158     0.021582022     0.452857143       3
     0.158103158     0.031581032     0.452857143       2
     0.168003168     0.031680032     0.452857143       3
     0.167904168     0.041679042     0.452857143       2
     0.177804178     0.041778042     0.452857143       3
     0.177705178     0.051777052     0.452857143       2
     0.187605188     0.051876052     0.452857143       3
     0.187506188     0.061875062     0.452857143       2
     0.197406197     0.061974062     0.452857143       3
     0.197307197     0.071973072     0.452857143       2
     0.207207207     0.072072072     0.452857143       3
     0.207108207     0.082071082     0.452857143       2
     0.217008217     0.082170082     0.452857143       3
     0.216909217     0.092169092     0.452857143       2
     0.226809227     0.092268092     0.452857143       3
     0.226710227     0.102267102     0.452857143       2
     0.236610237     0.102366102     0.452857143       3
     0.236511237     0.112365112     0.452857143       2
     0.246411246     0.112464112     0.452857143       3
     0.246312246     0.122463122     0.452857143       2
     0.256212256     0.122562123     0.452857143       3
     0.256113256     0.132561133     0.452857143       2
     0.266013266     0.132660133     0.452857143       3
     0.265914266     0.142659143     0.452857143       2
     0.275814276     0.142758143     0.452857143       3
     0.275715276     0.152757153     0.452857143       2
     0.285615286     0.152856153     0.452857143       3
     0.285516286     0.162855163     0.452857143       2
     0.295416295     0.162954163     0.452857143       3
     0.295317295     0.172953173     0.452857143       2
     0.305217305     0.173052173     0.452857143       3
     0.305118305     0.183051183     0.452857143       2
     0.315018315     0.183150183     0.452857143       3
     0.314919315     0.193149193     0.452857143       2
     0.324819325     0.193248193     0.452857143       3
     0.324720325     0.203247203     0.452857143       2
     0.334620335     0.203346203     0.452857143       3
     0.334521335     0.213345213     0.452857143       2
     0.344421344     0.213444213     0.452857143       3
     0.344322344     0.223443223     0.452857143       2
     0.354222354     0.223542224     0.452857143       3
     0.354123354     0.233541234     0.452857143       2
     0.364023364     0.233640234     0.452857143       3
     0.363924364     0.243639244     0.452857143       2
     0.373824374     0.243738244     0.452857143       3
     0.373725374     0.253737254     0.452857143       2
     0.383625384     0.253836254     0.452857143       3
     0.383526384     0.263835264     0.452857143       2
     0.393426393     0.263934264     0.452857143       3
     0.393327393     0.273933274     0.452857143       2
     0.403227403     0.274032274     0.452857143       3
     0.403128403     0.284031284     0.452857143       2
     0.413028413     0.284130284     0.452857143       3
     0.412929413     0.294129294     0.452857143       2
     0.422829423     0.294228294     0.452857143       3
     0.422730423     0.304227304     0.452857143       2
     0.432630433     0.304326304     0.452857143       3
     0.432531433     0.314325314     0.452857143       2
     0.442431442     0.314424314     0.452857143       3
     0.442332442     0.324423324     0.452857143       2
     0.452232452     0.324522325     0.452857143       3
     0.452133452     0.334521335     0.452857143       2
     0.462033462     0.334620335     0.452857143       3
     0.461934462     0.344619345     0.452857143       2
     0.471834472     0.344718345     0.452857143       3
     0.471735472     0.354717355     0.452857143       2
     0.481635482     0.354816355     0.452857143       3
     0.481536482     0.364815365     0.452857143       2
     0.491436491     0.364914365     0.452857143       3
     0.491337491     0.374913375     0.452857143       2
     0.501237501     0.375012375     0.452857143       3
     0.501138501     0.385011385     0.452857143       2
     0.511038511     0.385110385     0.452857143       3
     0.510939511     0.395109395     0.452857143       2
     0.520839521     0.395208395     0.452857143       3
     0.520740521     0.405207405     0.452857143       2
     0.530640531     0.405306405     0.452857143       3
     0.530541531     0.415305415     0.452857143       2
     0.540441540     0.415404415     0.452857143       3
     0.540342540     0.425403425     0.452857143       2
     0.550242550     0.425502426     0.452857143       3
     0.550143550     0.435501436     0.452857143       2
     0.560043560     0.435600436     0.452857143       3
     0.559944560     0.445599446     0.452857143       2
     0.569844570     0.445698446     0.452857143       3
     0.569745570     0.455697456     0.452857143       2
     0.579645580     0.455796456     0.452857143       3
     0.579546580     0.465795466     0.452857143       2
     0.589446589     0.465894466     0.452857143       3
     0.589347589     0.475893476     0.452857143       2
     0.599247599     0.475992476     0.452857143       3
     0.599148599     0.485991486     0.452857143       2
     0.609048609     0.486090486     0.452857143       3
     0.608949609     0.496089496     0.452857143       2
     0.618849619     0.496188496     0.452857143       3
     0.618750619     0.506187506     0.452857143       2
     0.628650629     0.506286506     0.452857143       3
     0.628551629     0.516285516     0.452857143       2
     0.638451638     0.516384516     0.452857143       3
     0.638352638     0.526383526     0.452857143       2
     0.648252648     0.526482526     0.452857143       3
     0.648153648     0.536481536     0.452857143       2
     0.658053658     0.536580537     0.452857143       3
     0.657954658     0.546579547     0.452857143       2
     0.667854668     0.546678547     0.452857143       3
     0.667755668     0.556677557     0.452857143       2
     0.677655678     0.556776557     0.452857143       3
     0.677556678     0.566775567     0.452857143       2
     0.687456687     0.566874567     0.452857143       3
     0.687357687     0.576873577     0.452857143       2
     0.697257697     0.576972577     0.452857143       3
     0.697158697     0.586971587     0.452857143       2
     0.707058707     0.587070587     0.452857143       3
     0.706959707     0.597069597     0.452857143       2
     0.716859717     0.597168597     0.452857143       3
     0.716760717     0.607167607     0.452857143       2
     0.726660727     0.607266607     0.452857143       3
     0.726561727     0.617265617     0.452857143       2
     0.736461736     0.617364617     0.452857143       3
     0.736362736     0.627363627     0.452857143       2
     0.746262746     0.627462627     0.452857143       3
     0.746163746     0.637461637     0.452857143       2
     0.756063756     0.637560638     0.452857143       3
     0.755964756     0.647559648     0.452857143       2
     0.765864766     0.647658648     0.452857143       3
     0.765765766     0.657657658     0.452857143       2
     0.775665776     0.657756658     0.452857143       3
     0.775566776     0.667755668     0.452857143       2
     0.785466785     0.667854668     0.452857143       3
     0.785367785     0.677853678     0.452857143       2
     0.795267795     0.677952678     0.452857143       3
     0.795168795     0.687951688     0.452857143       2
     0.805068805     0.688050688     0.452857143       3
     0.804969805     0.698049698     0.452857143       2
     0.814869815     0.698148698     0.452857143       3
     0.814770815     0.708147708     0.452857143       2
     0.824670825     0.708246708     0.452857143       3
     0.824571825     0.718245718     0.452857143       2
     0.834471834     0.718344718     0.452857143       3
     0.834372834     0.728343728     0.452857143       2
     0.844272844     0.728442728     0.452857143       3
     0.844173844     0.738441738     0.452857143       2
     0.854073854     0.738540739     0.452857143       3
     0.853974854     0.748539749     0.452857143       2
     0.863874864     0.748638749     0.452857143       3
     0.863775864     0.758637759     0.452857143       2
     0.873675874     0.758736759     0.452857143       3
     0.873576874     0.768735769     0.452857143       2
     0.883476883     0.768834769     0.452857143       3
     0.883377883     0.778833779     0.452857143       2
     0.893277893     0.778932779     0.452857143       3
     0.893178893     0.788931789     0.452857143       2
     0.903078903     0.789030789     0.452857143       3
     0.902979903     0.799029799     0.452857143       2
     0.912879913     0.799128799     0.452857143       3
     0.912780913     0.809127809     0.452857143       2
     0.922680923     0.809226809     0.452857143       3
     0.922581923     0.819225819     0.452857143       2
     0.932481932     0.819324819     0.452857143       3
     0.932382932     0.829323829     0.452857143       2
     0.942282942     0.829422829     0.452857143       3
     0.942183942     0.839421839     0.452857143       2
     0.952083952     0.839520840     0.452857143       3
     0.951984952     0.849519850     0.452857143       2
     0.961884962     0.849618850     0.452857143       3
     0.961785962     0.859617860     0.452857143       2
     0.971685972     0.859716860     0.452857143       3
     0.971586972     0.869715870     0.452857143       2
     0.981486981     0.869814870     0.452857143       3
     0.981387981     0.879813880     0.452857143       2
     0.991287991     0.879912880     0.452857143       3
     0.991188991     0.889911890     0.452857143       2
     0.001089001     0.890010890     0.452857143       3
     0.000990001     0.900009900     0.452857143       2
     0.010890011     0.900108900     0.452857143       3
     0.010791011     0.910107910     0.452857143       2
     0.020691021     0.910206910     0.452857143       3
     0.020592021     0.920205920     0.452857143       2
     0.030492030     0.920304920     0.452857143       3
     0.030393030     0.930303930     0.452857143       2
     0.040293040     0.930402930     0.452857143       3
     0.040194040     0.940401940     0.452857143       2
     0.050094050     0.940500941     0.452857143       3
     0.049995050     0.950499950     0.452857143       2
     0.059895060     0.950598951     0.452857143       3
     0.059796060     0.960597961     0.452857143       2
     0.069696070     0.960696961     0.452857143       3
     0.069597070     0.970695971     0.452857143       2
     0.079497079     0.970794971     0.452857143       3
     0.079398079     0.980793981     0.452857143       2
     0.089298089     0.980892981     0.452857143       3
     0.089199089     0.990891991     0.452857143       2
     0.099099099     0.990990991     0.452857143       3
     0.099000099     0.000990001     0.452857143       2
     0.108900109     0.001089001     0.452857143       3
     0.108801109     0.011088011     0.452857143       2
     0.118701119     0.011187011     0.452857143       3
     0.118602119     0.021186021     0.452857143       2
     0.128502129     0.021285021     0.452857143       3
     0.128403128     0.031284031     0.452857143       2
     0.138303138     0.031383031     0.452857143       3
     0.138204138     0.041382041     0.452857143       2
     0.148104148     0.041481041     0.452857143       3
     0.148005148     0.051480051     0.452857143       2
     0.157905158     0.051579052     0.452857143       3
     0.157806158     0.061578062     0.452857143       2
     0.167706168     0.061677062     0.452857143       3
     0.167607168     0.071676072     0.452857143       2
     0.177507178     0.071775072     0.452857143       3
     0.177408177     0.081774082     0.452857143       2
     0.187308187     0.081873082     0.452857143       3
     0.187209187     0.091872092     0.452857143       2
     0.197109197     0.091971092     0.452857143       3
     0.197010197     0.101970102     0.452857143       2
     0.206910207     0.102069102     0.452857143       3
     0.206811207     0.112068112     0.452857143       2
     0.216711217     0.112167112     0.452857143       3
     0.216612217     0.122166122     0.452857143       2
     0.226512227     0.122265122     0.452857143       3
     0.226413226     0.132264132     0.452857143       2
     0.236313236     0.132363132     0.452857143       3
     0.236214236     0.142362142     0.452857143       2
     0.246114246     0.142461142     0.452857143       3
     0.246015246     0.152460152     0.452857143       2
     0.255915256     0.152559153     0.452857143       3
     0.255816256     0.162558163     0.452857143       2
     0.265716266     0.162657163     0.452857143       3
     0.265617266     0.172656173     0.452857143       2
     0.275517276     0.172755173     0.452857143       3
     0.275418275     0.182754183     0.452857143       2
     0.285318285     0.182853183     0.452857143       3
     0.285219285     0.192852193     0.452857143       2
     0.295119295     0.192951193     0.452857143       3
     0.295020295     0.202950203     0.452857143       2
     0.304920305     0.203049203     0.452857143       3
     0.304821305     0.213048213     0.452857143       2
     0.314721315     0.213147213     0.452857143       3
     0.314622315     0.223146223     0.452857143       2
     0.324522325     0.223245223     0.452857143       3
     0.324423324     0.233244233     0.452857143       2
     0.334323334     0.233343233     0.452857143       3
     0.334224334     0.243342243     0.452857143       2
     0.344124344     0.243441243     0.452857143       3
     0.344025344     0.253440253     0.452857143       2
     0.353925354     0.253539254     0.452857143       3
     0.353826354     0.263538264     0.452857143       2
     0.363726364     0.263637264     0.452857143       3
     0.363627364     0.273636274     0.452857143       2
     0.373527374     0.273735274     0.452857143       3
     0.373428373     0.283734284     0.452857143       2
     0.383328383     0.283833284     0.452857143       3
     0.383229383     0.293832294     0.452857143       2
     0.393129393     0.293931294     0.452857143       3
     0.393030393     0.303930304     0.452857143       2
     0.402930403     0.304029304     0.452857143       3
     0.402831403     0.314028314     0.452857143       2
     0.412731413     0.314127314     0.452857143       3
     0.412632413     0.324126324     0.452857143       2
     0.422532423     0.324225324     0.452857143       3
     0.422433422     0.334224334     0.452857143       2
     0.432333432     0.334323334     0.452857143       3
     0.432234432     0.344322344     0.452857143       2
     0.442134442     0.344421344     0.452857143       3
     0.442035442     0.354420354     0.452857143       2
     0.451935452     0.354519355     0.452857143       3
     0.451836452     0.364518365     0.452857143       2
     0.461736462     0.364617365     0.452857143       3
     0.461637462     0.374616375     0.452857143       2
     0.471537472     0.374715375     0.452857143       3
     0.471438471     0.384714385     0.452857143       2
     0.481338481     0.384813385     0.452857143       3
     0.481239481     0.394812395     0.452857143       2
     0.491139491     0.394911395     0.452857143       3
     0.491040491     0.404910405     0.452857143       2
     0.500940501     0.405009405     0.452857143       3
     0.500841501     0.415008415     0.452857143       2
     0.510741511     0.415107415     0.452857143       3
     0.510642511     0.425106425     0.452857143       2
     0.520542521     0.425205425     0.452857143       3
     0.520443520     0.435204435     0.452857143       2
     0.530343530     0.435303435     0.452857143       3
     0.530244530     0.445302445     0.452857143       2
     0.540144540     0.445401445     0.452857143       3
     0.540045540     0.455400455     0.452857143       2
     0.549945550     0.455499455     0.452857143       3
     0.549846550     0.465498465     0.452857143       2
     0.559746560     0.465597466     0.452857143       3
     0.559647560     0.475596476     0.452857143       2
     0.569547570     0.475695476     0.452857143       3
     0.569448569     0.485694486     0.452857143       2
     0.579348579     0.485793486     0.452857143       3
     0.579249579     0.495792496     0.452857143       2
     0.589149589     0.495891496     0.452857143       3
     0.589050589     0.505890506     0.452857143       2
     0.598950599     0.505989506     0.452857143       3
     0.598851599     0.515988516     0.452857143       2
     0.608751609     0.516087516     0.452857143       3
     0.608652609     0.526086526     0.452857143       2
     0.618552619     0.526185526     0.452857143       3
     0.618453618     0.536184536     0.452857143       2
     0.628353628     0.536283536     0.452857143       3
     0.628254628     0.546282546     0.452857143       2
     0.638154638     0.546381546     0.452857143       3
     0.638055638     0.556380556     0.452857143       2
     0.647955648     0.556479556     0.452857143       3
     0.647856648     0.566478566     0.452857143       2
     0.657756658     0.566577567     0.452857143       3
     0.657657658     0.576576577     0.452857143       2
     0.667557668     0.576675577     0.452857143       3
     0.667458667     0.586674587     0.452857143       2
     0.677358677     0.586773587     0.452857143       3
     0.677259677     0.596772597     0.452857143       2
     0.687159687     0.596871597     0.452857143       3
     0.687060687     0.606870607     0.452857143       2
     0.696960697     0.606969607     0.452857143       3
     0.696861697     0.616968617     0.452857143       2
     0.706761707     0.617067617     0.452857143       3
     0.706662707     0.627066627     0.452857143       2
     0.716562717     0.627165627     0.452857143       3
     0.716463716     0.637164637     0.452857143       2
     0.726363726     0.637263637     0.452857143       3
     0.726264726     0.647262647     0.452857143       2
     0.736164736     0.647361647     0.452857143       3
     0.736065736     0.657360657     0.452857143       2
     0.745965746     0.657459657     0.452857143       3
     0.745866746     0.667458667     0.452857143       2
     0.755766756     0.667557668     0.452857143       3
     0.755667756     0.677556678     0.452857143       2
     0.765567766     0.677655678     0.452857143       3
     0.765468765     0.687654688     0.452857143       2
     0.775368775     0.687753688     0.452857143       3
     0.775269775     0.697752698     0.452857143       2
     0.785169785     0.697851698     0.452857143       3
     0.785070785     0.707850708     0.452857143       2
     0.794970795     0.707949708     0.452857143       3
     0.794871795     0.717948718     0.452857143       2
     0.804771805     0.718047718     0.452857143       3
     0.804672805     0.728046728     0.452857143       2
     0.814572815     0.728145728     0.452857143       3
     0.814473814     0.738144738     0.452857143       2
     0.824373824     0.738243738     0.452857143       3
     0.824274824     0.748242748     0.452857143       2
     0.834174834     0.748341748     0.452857143       3
     0.834075834     0.758340758     0.452857143       2
     0.843975844     0.758439758     0.452857143       3
     0.843876844     0.768438768     0.452857143       2
     0.853776854     0.768537769     0.452857143       3
     0.853677854     0.778536779     0.452857143       2
     0.863577864     0.778635779     0.452857143       3
     0.863478863     0.788634789     0.452857143       2
     0.873378873     0.788733789     0.452857143       3
     0.873279873     0.798732799     0.452857143       2
     0.883179883     0.798831799     0.452857143       3
     0.883080883     0.808830809     0.452857143       2
     0.892980893     0.808929809     0.452857143       3
     0.892881893     0.818928819     0.452857143       2
     0.902781903     0.819027819     0.452857143       3
     0.902682903     0.829026829     0.452857143       2
     0.912582913     0.829125829     0.452857143       3
     0.912483912     0.839124839     0.452857143       2
     0.922383922     0.839223839     0.452857143       3
     0.922284922     0.849222849     0.452857143       2
     0.932184932     0.849321849     0.452857143       3
     0.932085932     0.859320859     0.452857143       2
     0.941985942     0.859419859     0.452857143       3
     0.941886942     0.869418869     0.452857143       2
     0.951786952     0.869517870     0.452857143       3
     0.951687952     0.879516880     0.452857143       2
     0.961587962     0.879615880     0.452857143       3
     0.961488961     0.889614890     0.452857143       2
     0.971388971     0.889713890     0.452857143       3
     0.971289971     0.899712900     0.452857143       2
     0.981189981     0.899811900     0.452857143       3
     0.981090981     0.909810910     0.452857143       2
     0.990990991     0.909909910     0.452857143       3
     0.990891991     0.919908920     0.452857143       2
     0.000792001     0.920007920     0.452857143       3
     0.000693001     0.930006930     0.452857143       2
     0.010593011     0.930105930     0.452857143       3
     0.010494010     0.940104940     0.452857143       2
     0.020394020     0.940203940     0.452857143       3
     0.020295020     0.950202950     0.452857143       2
     0.030195030     0.950301950     0.452857143       3
     0.030096030     0.960300960     0.452857143       2
     0.039996040     0.960399960     0.452857143       3
     0.039897040     0.970398970     0.452857143       2
     0.049797050     0.970497970     0.452857143       3
     0.049698050     0.980496980     0.452857143       2
     0.059598060     0.980595981     0.452857143       3
     0.059499059     0.990594991     0.452857143       2
     0.069399069     0.990693991     0.452857143       3
     0.069300069     0.000693001     0.452857143       2
     0.079200079     0.000792001     0.452857143       3
     0.079101079     0.010791011     0.452857143       2
     0.089001089     0.010890011     0.452857143       3
     0.088902089     0.020889021     0.452857143       2
     0.098802099     0.020988021     0.452857143       3
     0.098703099     0.030987031     0.452857143       2
     0.108603109     0.031086031     0.452857143       3
     0.108504109     0.041085041     0.452857143       2
     0.118404118     0.041184041     0.452857143       3
     0.118305118     0.051183051     0.452857143       2
     0.128205128     0.051282051     0.452857143       3
     0.128106128     0.061281061     0.452857143       2
     0.138006138     0.061380061     0.452857143       3
     0.137907138     0.071379071     0.452857143       2
     0.147807148     0.071478071     0.452857143       3
     0.147708148     0.081477081     0.452857143       2
     0.157608158     0.081576082     0.452857143       3
     0.157509158     0.091575092     0.452857143       2
     0.167409167     0.091674092     0.452857143       3
     0.167310167     0.101673102     0.452857143       2
     0.177210177     0.101772102     0.452857143       3
     0.177111177     0.111771112     0.452857143       2
     0.187011187     0.111870112     0.452857143       3
     0.186912187     0.121869122     0.452857143       2
     0.196812197     0.121968122     0.452857143       3
     0.196713197     0.131967132     0.452857143       2
     0.206613207     0.132066132     0.452857143       3
     0.206514207     0.142065142     0.452857143       2
     0.216414216     0.142164142     0.452857143       3
     0.216315216     0.152163152     0.452857143       2
     0.226215226     0.152262152     0.452857143       3
     0.226116226     0.162261162     0.452857143       2
     0.236016236     0.162360162     0.452857143       3
     0.235917236     0.172359172     0.452857143       2
     0.245817246     0.172458172     0.452857143       3
     0.245718246     0.182457182     0.452857143       2
     0.255618256     0.182556183     0.452857143       3
     0.255519256     0.192555193     0.452857143       2
     0.265419265     0.192654193     0.452857143       3
     0.265320265     0.202653203     0.452857143       2
     0.275220275     0.202752203     0.452857143       3
     0.275121275     0.212751213     0.452857143       2
     0.285021285     0.212850213     0.452857143       3
     0.284922285     0.222849223     0.452857143       2
     0.294822295     0.222948223     0.452857143       3
     0.294723295     0.232947233     0.452857143       2
     0.304623305     0.233046233     0.452857143       3
     0.304524305     0.243045243     0.452857143       2
     0.314424314     0.243144243     0.452857143       3
     0.314325314     0.253143253     0.452857143       2
     0.324225324     0.253242253     0.452857143       3
     0.324126324     0.263241263     0.452857143       2
     0.334026334     0.263340263     0.452857143       3
     0.333927334     0.273339273     0.452857143       2
     0.343827344     0.273438273     0.452857143       3
     0.343728344     0.283437283     0.452857143       2
     0.353628354     0.283536284     0.452857143       3
     0.353529354     0.293535294     0.452857143       2
     0.363429363     0.293634294     0.452857143       3
     0.363330363     0.303633304     0.452857143       2
     0.373230373     0.303732304     0.452857143       3
     0.373131373     0.313731314     0.452857143       2
     0.383031383     0.313830314     0.452857143       3
     0.382932383     0.323829324     0.452857143       2
     0.392832393     0.323928324     0.452857143       3
     0.392733393     0.333927334     0.452857143       2
     0.402633403     0.334026334     0.452857143       3
     0.402534403     0.344025344     0.452857143       2
     0.412434412     0.344124344     0.452857143       3
     0.412335412     0.354123354     0.452857143       2
     0.422235422     0.354222354     0.452857143       3
     0.422136422     0.364221364     0.452857143       2
     0.432036432     0.364320364     0.452857143       3
     0.431937432     0.374319374     0.452857143       2
     0.441837442     0.374418374     0.452857143       3
     0.441738442     0.384417384     0.452857143       2
     0.451638452     0.384516385     0.452857143       3
     0.451539452     0.394515395     0.452857143       2
     0.461439461     0.394614395     0.452857143       3
     0.461340461     0.404613405     0.452857143       2
     0.471240471     0.404712405     0.452857143       3
     0.471141471     0.414711415     0.452857143       2
     0.481041481     0.414810415     0.452857143       3
     0.480942481     0.424809425     0.452857143       2
     0.490842491     0.424908425     0.452857143       3
     0.490743491     0.434907435     0.452857143       2
     0.500643501     0.435006435     0.452857143       3
     0.500544501     0.445005445     0.452857143       2
     0.510444510     0.445104445     0.452857143       3
     0.510345510     0.455103455     0.452857143       2
     0.520245520     0.455202455     0.452857143       3
     0.520146520     0.465201465     0.452857143       2
     0.530046530     0.465300465     0.452857143       3
     0.529947530     0.475299475     0.452857143       2
     0.539847540     0.475398475     0.452857143       3
     0.539748540     0.485397485     0.452857143       2
     0.549648550     0.485496485     0.452857143       3
     0.549549550     0.495495495     0.452857143       2
     0.559449559     0.495594496     0.452857143       3
     0.559350559     0.505593506     0.452857143       2
     0.569250569     0.505692506     0.452857143       3
     0.569151569     0.515691516     0.452857143       2
     0.579051579     0.515790516     0.452857143       3
     0.578952579     0.525789526     0.452857143       2
     0.588852589     0.525888526     0.452857143       3
     0.588753589     0.535887536     0.452857143       2
     0.598653599     0.535986536     0.452857143       3
     0.598554599     0.545985546     0.452857143       2
     0.608454608     0.546084546     0.452857143       3
     0.608355608     0.556083556     0.452857143       2
     0.618255618     0.556182556     0.452857143       3
     0.618156618     0.566181566     0.452857143       2
     0.628056628     0.566280566     0.452857143       3
     0.627957628     0.576279576     0.452857143       2
     0.637857638     0.576378576     0.452857143       3
     0.637758638     0.586377586     0.452857143       2
     0.647658648     0.586476586     0.452857143       3
     0.647559648     0.596475596     0.452857143       2
     0.657459657     0.596574597     0.452857143       3
     0.657360657     0.606573607     0.452857143       2
     0.667260667     0.606672607     0.452857143       3
     0.667161667     0.616671617     0.452857143       2
     0.677061677     0.616770617     0.452857143       3
     0.676962677     0.626769627     0.452857143       2
     0.686862687     0.626868627     0.452857143       3
     0.686763687     0.636867637     0.452857143       2
     0.696663697     0.636966637     0.452857143       3
     0.696564697     0.646965647     0.452857143       2
     0.706464706     0.647064647     0.452857143       3
     0.706365706     0.657063657     0.452857143       2
     0.716265716     0.657162657     0.452857143       3
     0.716166716     0.667161667     0.452857143       2
     0.726066726     0.667260667     0.452857143       3
     0.725967726     0.677259677     0.452857143       2
     0.735867736     0.677358677     0.452857143       3
     0.735768736     0.687357687     0.452857143       2
     0.745668746     0.687456687     0.452857143       3
     0.745569746     0.697455697     0.452857143       2
     0.755469755     0.697554698     0.452857143       3
     0.755370755     0.707553708     0.452857143       2
     0.765270765     0.707652708     0.452857143       3
     0.765171765     0.717651718     0.452857143       2
     0.775071775     0.717750718     0.452857143       3
     0.774972775     0.727749728     0.452857143       2
     0.784872785     0.727848728     0.452857143       3
     0.784773785     0.737847738     0.452857143       2
     0.794673795     0.737946738     0.452857143       3
     0.794574795     0.747945748     0.452857143       2
     0.804474804     0.748044748     0.452857143       3
     0.804375804     0.758043758     0.452857143       2
     0.814275814     0.758142758     0.452857143       3
     0.814176814     0.768141768     0.452857143       2
     0.824076824     0.768240768     0.452857143       3
     0.823977824     0.778239778     0.452857143       2
     0.833877834     0.778338778     0.452857143       3
     0.833778834     0.788337788     0.452857143       2
     0.843678844     0.788436788     0.452857143       3
     0.843579844     0.798435798     0.452857143       2
     0.853479853     0.798534799     0.452857143       3
     0.853380853     0.808533809     0.452857143       2
     0.863280863     0.808632809     0.452857143       3
     0.863181863     0.818631819     0.452857143       2
     0.873081873     0.818730819     0.452857143       3
     0.872982873     0.828729829     0.452857143       2
     0.882882883     0.828828829     0.452857143       3
     0.882783883     0.838827839     0.452857143       2
     0.892683893     0.838926839     0.452857143       3
     0.892584893     0.848925849     0.452857143       2
     0.902484902     0.849024849     0.452857143       3
     0.902385902     0.859023859     0.452857143       2
     0.912285912     0.859122859     0.452857143       3
     0.912186912     0.869121869     0.452857143       2
     0.922086922     0.869220869     0.452857143       3
     0.921987922     0.879219879     0.452857143       2
     0.931887932     0.879318879     0.452857143       3
     0.931788932     0.889317889     0.452857143       2
     0.941688942     0.889416889     0.452857143       3
     0.941589942     0.899415899     0.452857143       2
     0.951489951     0.899514900     0.452857143       3
     0.951390951     0.909513910     0.452857143       2
     0.961290961     0.909612910     0.452857143       3
     0.961191961     0.919611920     0.452857143       2
     0.971091971     0.919710920     0.452857143       3
     0.970992971     0.929709930     0.452857143       2
     0.980892981     0.929808930     0.452857143       3
     0.980793981     0.939807940     0.452857143       2
     0.990693991     0.939906940     0.452857143       3
     0.990594991     0.949905950     0.452857143       2
     0.000495000     0.950004950     0.452857143       3
     0.000396000     0.960003960     0.452857143       2
     0.010296010     0.960102960     0.452857143       3
     0.010197010     0.970101970     0.452857143       2
     0.020097020     0.970200970     0.452857143       3
     0.019998020     0.980199980     0.452857143       2
     0.029898030     0.980298980     0.452857143       3
     0.029799030     0.990297990     0.452857143       2
     0.039699040     0.990396990     0.452857143       3
     0.039600040     0.000396000     0.452857143       2
     0.049500050     0.000495000     0.452857143       3
     0.049401049     0.010494010     0.452857143       2
     0.059301059     0.010593011     0.452857143       3
     0.059202059     0.020592021     0.452857143       2
     0.069102069     0.020691021     0.452857143       3
     0.069003069     0.030690031     0.452857143       2
     0.078903079     0.030789031     0.452857143       3
     0.078804079     0.040788041     0.452857143       2
     0.088704089     0.040887041     0.452857143       3
     0.088605089     0.050886051     0.452857143       2
     0.098505099     0.050985051     0.452857143       3
     0.098406098     0.060984061     0.452857143       2
     0.108306108     0.061083061     0.452857143       3
     0.108207108     0.071082071     0.452857143       2
     0.118107118     0.071181071     0.452857143       3
     0.118008118     0.081180081     0.452857143       2
     0.127908128     0.081279081     0.452857143       3
     0.127809128     0.091278091     0.452857143       2
     0.137709138     0.091377091     0.452857143       3
     0.137610138     0.101376101     0.452857143       2
     0.147510148     0.101475101     0.452857143       3
     0.147411147     0.111474111     0.452857143       2
     0.157311157     0.111573112     0.452857143       3
     0.157212157     0.121572122     0.452857143       2
     0.167112167     0.121671122     0.452857143       3
     0.167013167     0.131670132     0.452857143       2
     0.176913177     0.131769132     0.452857143       3
     0.176814177     0.141768142     0.452857143       2
     0.186714187     0.141867142     0.452857143       3
     0.186615187     0.151866152     0.452857143       2
     0.196515197     0.151965152     0.452857143       3
     0.196416196     0.161964162     0.452857143       2
     0.206316206     0.162063162     0.452857143       3
     0.206217206     0.172062172     0.452857143       2
     0.216117216     0.172161172     0.452857143       3
     0.216018216     0.182160182     0.452857143       2
     0.225918226     0.182259182     0.452857143       3
     0.225819226     0.192258192     0.452857143       2
     0.235719236     0.192357192     0.452857143       3
     0.235620236     0.202356202     0.452857143       2
     0.245520246     0.202455202     0.452857143       3
     0.245421245     0.212454212     0.452857143       2
     0.255321255     0.212553213     0.452857143       3
     0.255222255     0.222552223     0.452857143       2
     0.265122265     0.222651223     0.452857143       3
     0.265023265     0.232650233     0.452857143       2
     0.274923275     0.232749233     0.452857143       3
     0.274824275     0.242748243     0.452857143       2
     0.284724285     0.242847243     0.452857143       3
     0.284625285     0.252846253     0.452857143       2
     0.294525295     0.252945253     0.452857143       3
     0.294426294     0.262944263     0.452857143       2
     0.304326304     0.263043263     0.452857143       3
     0.304227304     0.273042273     0.452857143       2
     0.314127314     0.273141273     0.452857143       3
     0.314028314     0.283140283     0.452857143       2
     0.323928324     0.283239283     0.452857143       3
     0.323829324     0.293238293     0.452857143       2
     0.333729334     0.293337293     0.452857143       3
     0.333630334     0.303336303     0.452857143       2
     0.343530344     0.303435303     0.452857143       3
     0.343431343     0.313434313     0.452857143       2
     0.353331353     0.313533314     0.452857143       3
     0.353232353     0.323532324     0.452857143       2
     0.363132363     0.323631324     0.452857143       3
     0.363033363     0.333630334     0.452857143       2
     0.372933373     0.333729334     0.452857143       3
     0.372834373     0.343728344     0.452857143       2
     0.382734383     0.343827344     0.452857143       3
     0.382635383     0.353826354     0.452857143       2
     0.392535393     0.353925354     0.452857143       3
     0.392436392     0.363924364     0.452857143       2
     0.402336402     0.364023364     0.452857143       3
     0.402237402     0.374022374     0.452857143       2
     0.412137412     0.374121374     0.452857143       3
     0.412038412     0.384120384     0.452857143       2
     0.421938422     0.384219384     0.452857143       3
     0.421839422     0.394218394     0.452857143       2
     0.431739432     0.394317394     0.452857143       3
     0.431640432     0.404316404     0.452857143       2
     0.441540442     0.404415404     0.452857143       3
     0.441441441     0.414414414     0.452857143       2
     0.451341451     0.414513415     0.452857143       3
     0.451242451     0.424512425     0.452857143       2
     0.461142461     0.424611425     0.452857143       3
     0.461043461     0.434610435     0.452857143       2
     0.470943471     0.434709435     0.452857143       3
     0.470844471     0.444708445     0.452857143       2
     0.480744481     0.444807445     0.452857143       3
     0.480645481     0.454806455     0.452857143       2
     0.490545491     0.454905455     0.452857143       3
     0.490446490     0.464904465     0.452857143       2
     0.500346500     0.465003465     0.452857143       3
     0.500247500     0.475002475     0.452857143       2
     0.510147510     0.475101475     0.452857143       3
     0.510048510     0.485100485     0.452857143       2
     0.519948520     0.485199485     0.452857143       3
     0.519849520     0.495198495     0.452857143       2
     0.529749530     0.495297495     0.452857143       3
     0.529650530     0.505296505     0.452857143       2
     0.539550540     0.505395505     0.452857143       3
     0.539451539     0.515394515     0.452857143       2
     0.549351549     0.515493515     0.452857143       3
     0.549252549     0.525492525     0.452857143       2
     0.559152559     0.525591526     0.452857143       3
     0.559053559     0.535590536     0.452857143       2
     0.568953569     0.535689536     0.452857143       3
     0.568854569     0.545688546     0.452857143       2
     0.578754579     0.545787546     0.452857143       3
     0.578655579     0.555786556     0.452857143       2
     0.588555589     0.555885556     0.452857143       3
     0.588456588     0.565884566     0.452857143       2
     0.598356598     0.565983566     0.452857143       3
     0.598257598     0.575982576     0.452857143       2
     0.608157608     0.576081576     0.452857143       3
     0.608058608     0.586080586     0.452857143       2
     0.617958618     0.586179586     0.452857143       3
     0.617859618     0.596178596     0.452857143       2
     0.627759628     0.596277596     0.452857143       3
     0.627660628     0.606276606     0.452857143       2
     0.637560638     0.606375606     0.452857143       3
     0.637461637     0.616374616     0.452857143       2
     0.647361647     0.616473616     0.452857143       3
     0.647262647     0.626472626     0.452857143       2
     0.657162657     0.626571627     0.452857143       3
     0.657063657     0.636570637     0.452857143       2
     0.666963667     0.636669637     0.452857143       3
     0.666864667     0.646668647     0.452857143       2
     0.676764677     0.646767647     0.452857143       3
     0.676665677     0.656766657     0.452857143       2
     0.686565687     0.656865657     0.452857143       3
     0.686466686     0.666864667     0.452857143       2
     0.696366696     0.666963667     0.452857143       3
     0.696267696     0.676962677     0.452857143       2
     0.706167706     0.677061677     0.452857143       3
     0.706068706     0.687060687     0.452857143       2
     0.715968716     0.687159687     0.452857143       3
     0.715869716     0.697158697     0.452857143       2
     0.725769726     0.697257697     0.452857143       3
     0.725670726     0.707256707     0.452857143       2
     0.735570736     0.707355707     0.452857143       3
     0.735471735     0.717354717     0.452857143       2
     0.745371745     0.717453717     0.452857143       3
     0.745272745     0.727452727     0.452857143       2
     0.755172755     0.727551728     0.452857143       3
     0.755073755     0.737550738     0.452857143       2
     0.764973765     0.737649738     0.452857143       3
     0.764874765     0.747648748     0.452857143       2
     0.774774775     0.747747748     0.452857143       3
     0.774675775     0.757746758     0.452857143       2
     0.784575785     0.757845758     0.452857143       3
     0.784476784     0.767844768     0.452857143       2
     0.794376794     0.767943768     0.452857143       3
     0.794277794     0.777942778     0.452857143       2
     0.804177804     0.778041778     0.452857143       3
     0.804078804     0.788040788     0.452857143       2
     0.813978814     0.788139788     0.452857143       3
     0.813879814     0.798138798     0.452857143       2
     0.823779824     0.798237798     0.452857143       3
     0.823680824     0.808236808     0.452857143       2
     0.833580834     0.808335808     0.452857143       3
     0.833481833     0.818334818     0.452857143       2
     0.843381843     0.818433818     0.452857143       3
     0.843282843     0.828432828     0.452857143       2
     0.853182853     0.828531829     0.452857143       3
     0.853083853     0.838530839     0.452857143       2
     0.862983863     0.838629839     0.452857143       3
     0.862884863     0.848628849     0.452857143       2
     0.872784873     0.848727849     0.452857143       3
     0.872685873     0.858726859     0.452857143       2
     0.882585883     0.858825859     0.452857143       3
     0.882486882     0.868824869     0.452857143       2
     0.892386892     0.868923869     0.452857143       3
     0.892287892     0.878922879     0.452857143       2
     0.902187902     0.879021879     0.452857143       3
     0.902088902     0.889020889     0.452857143       2
     0.911988912     0.889119889     0.452857143       3
     0.911889912     0.899118899     0.452857143       2
     0.921789922     0.899217899     0.452857143       3
     0.921690922     0.909216909     0.452857143       2
     0.931590932     0.909315909     0.452857143       3
     0.931491931     0.919314919     0.452857143       2
     0.941391941     0.919413919     0.452857143       3
     0.941292941     0.929412929     0.452857143       2
     0.951192951     0.929511930     0.452857143       3
     0.951093951     0.939510940     0.452857143       2
     0.960993961     0.939609940     0.452857143       3
     0.960894961     0.949608950     0.452857143       2
     0.970794971     0.949707950     0.452857143       3
     0.970695971     0.959706960     0.452857143       2
     0.980595981     0.959805960     0.452857143       3
     0.980496980     0.969804970     0.452857143       2
     0.990396990     0.969903970     0.452857143       3
     0.990297990     0.979902980     0.452857143       2
     0.000198000     0.980001980     0.452857143       3
     0.000099000     0.990000990     0.452857143       2
     0.009999010     0.990099990     0.452857143       3
%endblock AtomicCoordinatesAndAtomicSpecies
